$molecule
0  1
C        +0.22270000        +1.04488000        +0.58595000
C        +0.62626000        -0.41353000        +0.99871000
C        +1.33008000        +1.39974000        -0.43491000
C        +2.63070000        +1.71700000        +0.32855000
C        +3.04336000        +0.29351000        +0.80300000
C        +1.94423000        -0.59299000        +0.15262000
O        +1.62840000        +0.13663000        -1.04376000
H        +3.37234000        +2.13782000        -0.35195000
H        +2.48236000        +2.42488000        +1.14651000
H        +4.02182000        +0.00994000        +0.41161000
H        +3.07359000        +0.18738000        +1.88928000
H        +1.03270000        +2.19943000        -1.08064000
H        +2.24339000        -1.61496000        +0.04786000
H        +0.81693000        -0.48905000        +2.04887000
H        -0.12524000        -1.15356000        +0.81843000
H        -0.74673000        +1.06811000        +0.13365000
H        +0.15552000        +1.72617000        +1.40828000
@C        +5.64068000        +4.19901000        +5.55555000
@C        +6.04424000        +2.74060000        +5.96831000
@C        +6.74806000        +4.55387000        +4.53469000
@C        +8.04868000        +4.87113000        +5.29815000
@C        +8.46134000        +3.44764000        +5.77260000
@C        +7.36221000        +2.56114000        +5.12222000
@O        +7.04638000        +3.29076000        +3.92584000
@H        +8.79032000        +5.29195000        +4.61765000
@H        +7.90034000        +5.57901000        +6.11611000
@H        +9.43980000        +3.16407000        +5.38121000
@H        +8.49157000        +3.34151000        +6.85888000
@H        +6.45068000        +5.35356000        +3.88896000
@H        +7.66137000        +1.53917000        +5.01746000
@H        +6.23491000        +2.66508000        +7.01847000
@H        +5.29274000        +2.00057000        +5.78803000
@H        +4.67125000        +4.22224000        +5.10325000
@H        +5.57350000        +4.88030000        +6.37788000
$end

$rem
JOBTYPE                   SP
METHOD                    B3LYP
DFT_D                     d3_op
BASIS                     6-311++G(d,p)
SYMMETRY                  False
THRESH                    12
SCF_CONVERGENCE           8
MAX_SUB_FILE_NUM          128
MEM_STATIC                400
MEM_TOTAL                 4000
$end
