$molecule
0  1
--
0  1
C        +0.22270000        +1.04488000        +0.58595000
C        +0.62626000        -0.41353000        +0.99871000
C        +1.33008000        +1.39974000        -0.43491000
C        +2.63070000        +1.71700000        +0.32855000
C        +3.04336000        +0.29351000        +0.80300000
C        +1.94423000        -0.59299000        +0.15262000
O        +1.62840000        +0.13663000        -1.04376000
H        +3.37234000        +2.13782000        -0.35195000
H        +2.48236000        +2.42488000        +1.14651000
H        +4.02182000        +0.00994000        +0.41161000
H        +3.07359000        +0.18738000        +1.88928000
H        +1.03270000        +2.19943000        -1.08064000
C        +2.35450000        -2.01267000        -0.16812000
H        +3.25743000        -2.00195000        -0.74215000
H        +1.57951000        -2.48932000        -0.73123000
H        +2.51687000        -2.55129000        +0.74206000
H        -0.74673000        +1.06811000        +0.13365000
H        +0.15552000        +1.72617000        +1.40828000
H        +0.81693000        -0.48905000        +2.04887000
H        -0.12524000        -1.15356000        +0.81843000
--
0  1
C        +3.83858000        +2.82712000        +3.54383000
C        +4.24214000        +1.36871000        +3.95659000
C        +4.94596000        +3.18198000        +2.52297000
C        +6.24658000        +3.49924000        +3.28643000
C        +6.65924000        +2.07575000        +3.76088000
C        +5.56011000        +1.18925000        +3.11050000
O        +5.24428000        +1.91887000        +1.91412000
H        +6.98822000        +3.92006000        +2.60593000
H        +6.09824000        +4.20712000        +4.10439000
H        +7.63770000        +1.79218000        +3.36949000
H        +6.68947000        +1.96962000        +4.84716000
H        +4.64858000        +3.98167000        +1.87724000
C        +5.97038000        -0.23043000        +2.78976000
H        +6.87331000        -0.21971000        +2.21573000
H        +5.19539000        -0.70708000        +2.22665000
H        +6.13275000        -0.76905000        +3.69994000
H        +2.86915000        +2.85035000        +3.09153000
H        +3.77140000        +3.50841000        +4.36616000
H        +4.43281000        +1.29319000        +5.00675000
H        +3.49064000        +0.62868000        +3.77631000
$end

$rem
JOBTYPE                   SP
METHOD                    B3LYP
DFT_D                     d3_op
BASIS                     6-311++G(d,p)
SYMMETRY                  False
THRESH                    12
SCF_CONVERGENCE           8
MAX_SUB_FILE_NUM          128
MEM_STATIC                400
MEM_TOTAL                 4000
$end
