$molecule
0  1
C        -0.54444000        -0.68370000        -0.06689000
C        -0.55709000        +0.71878000        +0.05493000
C        -1.74320000        -1.41616000        -0.12552000
C        -2.93952000        -0.70056000        -0.05285000
C        -2.95313000        +0.68255000        +0.06934000
C        -1.77161000        +1.42404000        +0.12810000
H        -3.90354000        +1.20325000        +0.11710000
H        -3.87892000        -1.24211000        -0.08988000
C        -1.83960000        +2.92746000        +0.24839000
H        -1.24214000        +3.42352000        -0.52065000
H        -1.45503000        +3.26427000        +1.21284000
H        -2.87211000        +3.26623000        +0.14638000
H        -1.73878000        -2.44393000        -0.21875000
H        +0.35825000        -1.18166000        -0.11386000
H        +0.33551000        +1.23549000        +0.09097000
@C        -0.71533000        -1.04119000        +4.91739000
@C        -0.72798000        +0.36129000        +5.03921000
@C        -1.91409000        -1.77365000        +4.85876000
@C        -3.11041000        -1.05805000        +4.93143000
@C        -3.12402000        +0.32506000        +5.05362000
@C        -1.94250000        +1.06655000        +5.11238000
@H        -4.07443000        +0.84576000        +5.10138000
@H        -4.04981000        -1.59960000        +4.89440000
@C        -2.01049000        +2.56997000        +5.23267000
@H        -1.41303000        +3.06603000        +4.46363000
@H        -1.62592000        +2.90678000        +6.19712000
@H        -3.04300000        +2.90874000        +5.13066000
@H        -1.90967000        -2.80142000        +4.76553000
@H        +0.18736000        -1.53915000        +4.87042000
@H        +0.16462000        +0.87800000        +5.07525000
$end

$rem
JOBTYPE                   SP
METHOD                    B3LYP
DFT_D                     d3_op
BASIS                     6-311++G(d,p)
SYMMETRY                  False
THRESH                    12
SCF_CONVERGENCE           8
MAX_SUB_FILE_NUM          128
MEM_STATIC                400
MEM_TOTAL                 4000
$end
