$molecule
0  1
C        -0.67090000        -0.94824000        +3.62147000
C        -0.68355000        +0.45424000        +3.74329000
C        -1.86966000        -1.68070000        +3.56284000
C        -3.06598000        -0.96510000        +3.63551000
C        -3.07959000        +0.41801000        +3.75770000
C        -1.89807000        +1.15950000        +3.81646000
H        -4.03000000        +0.93871000        +3.80546000
H        -4.00538000        -1.50665000        +3.59848000
C        -1.96606000        +2.66292000        +3.93675000
H        -1.36860000        +3.15898000        +3.16771000
H        -1.58149000        +2.99973000        +4.90120000
H        -2.99857000        +3.00169000        +3.83474000
H        -1.86524000        -2.70847000        +3.46961000
H        +0.23179000        -1.44620000        +3.57450000
H        +0.20905000        +0.97095000        +3.77933000
@C        -0.54444000        -0.68370000        -0.06689000
@C        -0.55709000        +0.71878000        +0.05493000
@C        -1.74320000        -1.41616000        -0.12552000
@C        -2.93952000        -0.70056000        -0.05285000
@C        -2.95313000        +0.68255000        +0.06934000
@C        -1.77161000        +1.42404000        +0.12810000
@H        -3.90354000        +1.20325000        +0.11710000
@H        -3.87892000        -1.24211000        -0.08988000
@C        -1.83960000        +2.92746000        +0.24839000
@H        -1.24214000        +3.42352000        -0.52065000
@H        -1.45503000        +3.26427000        +1.21284000
@H        -2.87211000        +3.26623000        +0.14638000
@H        -1.73878000        -2.44393000        -0.21875000
@H        +0.35825000        -1.18166000        -0.11386000
@H        +0.33551000        +1.23549000        +0.09097000
$end

$rem
JOBTYPE                   SP
METHOD                    B3LYP
DFT_D                     d3_op
BASIS                     6-311++G(d,p)
SYMMETRY                  False
THRESH                    12
SCF_CONVERGENCE           8
MAX_SUB_FILE_NUM          128
MEM_STATIC                400
MEM_TOTAL                 4000
$end
