$molecule
0  1
C        -0.58454000        -0.67556000        -0.07544000
C        -0.59851000        +0.70920000        +0.05808000
C        -1.77633000        -1.40990000        -0.13252000
C        -2.97828000        -0.70388000        -0.05611000
C        -2.99244000        +0.68477000        +0.07719000
C        -1.80513000        +1.41687000        +0.13452000
H        -3.94378000        +1.20441000        +0.13594000
H        -3.91864000        -1.24474000        -0.10022000
C        -1.81546000        +2.92210000        +0.24949000
C        -1.75732000        -2.91589000        -0.24640000
H        -1.03160000        -3.25185000        -0.99235000
H        -2.73712000        -3.30600000        -0.53105000
H        -1.48213000        -3.37940000        +0.70725000
H        -1.54006000        +3.39064000        -0.70147000
H        -1.10219000        +3.26991000        +1.00208000
H        -2.80465000        +3.29345000        +0.52612000
H        +0.36601000        -1.19708000        -0.13515000
H        +0.34176000        +1.25035000        +0.10232000
@C        -0.55107000        -1.02954000        +3.60744000
@C        -0.56504000        +0.35522000        +3.74096000
@C        -1.74286000        -1.76388000        +3.55036000
@C        -2.94481000        -1.05786000        +3.62677000
@C        -2.95897000        +0.33079000        +3.76007000
@C        -1.77166000        +1.06289000        +3.81740000
@H        -3.91031000        +0.85043000        +3.81882000
@H        -3.88517000        -1.59872000        +3.58266000
@C        -1.78199000        +2.56812000        +3.93237000
@C        -1.72385000        -3.26987000        +3.43648000
@H        -0.99813000        -3.60583000        +2.69053000
@H        -2.70365000        -3.65998000        +3.15183000
@H        -1.44866000        -3.73338000        +4.39013000
@H        -1.50659000        +3.03666000        +2.98141000
@H        -1.06872000        +2.91593000        +4.68496000
@H        -2.77118000        +2.93947000        +4.20900000
@H        +0.39948000        -1.55106000        +3.54773000
@H        +0.37523000        +0.89637000        +3.78520000
$end

$rem
JOBTYPE                   SP
METHOD                    B3LYP
DFT_D                     d3_op
BASIS                     6-311++G(d,p)
SYMMETRY                  False
THRESH                    12
SCF_CONVERGENCE           8
MAX_SUB_FILE_NUM          128
MEM_STATIC                400
MEM_TOTAL                 4000
$end
