$molecule
0  1
C        -0.54444000        -0.68370000        -0.06689000
C        -0.55709000        +0.71878000        +0.05493000
C        -1.74320000        -1.41616000        -0.12552000
C        -2.93952000        -0.70056000        -0.05285000
C        -2.95313000        +0.68255000        +0.06934000
C        -1.77161000        +1.42404000        +0.12810000
H        -3.90354000        +1.20325000        +0.11710000
H        -3.87892000        -1.24211000        -0.08988000
C        -1.83960000        +2.92746000        +0.24839000
C        -1.78103000        -2.92226000        -0.24590000
H        -1.39752000        -3.25223000        -1.21323000
H        -2.80572000        -3.28175000        -0.13627000
H        -1.16958000        -3.40777000        +0.51926000
H        -1.24214000        +3.42352000        -0.52065000
H        -1.45503000        +3.26427000        +1.21284000
H        -2.87211000        +3.26623000        +0.14638000
H        +0.35825000        -1.18166000        -0.11386000
H        +0.33551000        +1.23549000        +0.09097000
@C        -2.06824000        +0.14226000        +4.62308000
@C        -2.08089000        +1.54474000        +4.74490000
@C        -3.26700000        -0.59020000        +4.56445000
@C        -4.46332000        +0.12540000        +4.63712000
@C        -4.47693000        +1.50851000        +4.75931000
@C        -3.29541000        +2.25000000        +4.81807000
@H        -5.42734000        +2.02921000        +4.80707000
@H        -5.40272000        -0.41615000        +4.60009000
@C        -3.36340000        +3.75342000        +4.93836000
@C        -3.30483000        -2.09630000        +4.44407000
@H        -2.92132000        -2.42627000        +3.47674000
@H        -4.32952000        -2.45579000        +4.55370000
@H        -2.69338000        -2.58181000        +5.20923000
@H        -2.76594000        +4.24948000        +4.16932000
@H        -2.97883000        +4.09023000        +5.90281000
@H        -4.39591000        +4.09219000        +4.83635000
@H        -1.16555000        -0.35570000        +4.57611000
@H        -1.18829000        +2.06145000        +4.78094000
$end

$rem
JOBTYPE                   SP
METHOD                    B3LYP
DFT_D                     d3_op
BASIS                     6-311++G(d,p)
SYMMETRY                  False
THRESH                    12
SCF_CONVERGENCE           8
MAX_SUB_FILE_NUM          128
MEM_STATIC                400
MEM_TOTAL                 4000
$end
