$molecule
0  1
C        -0.54444000        -0.68370000        -0.06689000
C        -0.55709000        +0.71878000        +0.05493000
C        -1.74320000        -1.41616000        -0.12552000
C        -2.93952000        -0.70056000        -0.05285000
C        -2.95313000        +0.68255000        +0.06934000
C        -1.77161000        +1.42404000        +0.12810000
H        -3.90354000        +1.20325000        +0.11710000
H        -3.87892000        -1.24211000        -0.08988000
C        -1.83960000        +2.92746000        +0.24839000
C        -1.78103000        -2.92226000        -0.24590000
H        -1.39752000        -3.25223000        -1.21323000
H        -2.80572000        -3.28175000        -0.13627000
H        -1.16958000        -3.40777000        +0.51926000
H        -1.24214000        +3.42352000        -0.52065000
H        -1.45503000        +3.26427000        +1.21284000
H        -2.87211000        +3.26623000        +0.14638000
H        +0.35825000        -1.18166000        -0.11386000
H        +0.33551000        +1.23549000        +0.09097000
@C        -1.67205000        -0.07249000        +3.40369000
@C        -1.68470000        +1.32999000        +3.52551000
@C        -2.87081000        -0.80495000        +3.34506000
@C        -4.06713000        -0.08935000        +3.41773000
@C        -4.08074000        +1.29376000        +3.53992000
@C        -2.89922000        +2.03525000        +3.59868000
@H        -5.03115000        +1.81446000        +3.58768000
@H        -5.00653000        -0.63090000        +3.38070000
@C        -2.96721000        +3.53867000        +3.71897000
@C        -2.90864000        -2.31105000        +3.22468000
@H        -2.52513000        -2.64102000        +2.25735000
@H        -3.93333000        -2.67054000        +3.33431000
@H        -2.29719000        -2.79656000        +3.98984000
@H        -2.36975000        +4.03473000        +2.94993000
@H        -2.58264000        +3.87548000        +4.68342000
@H        -3.99972000        +3.87744000        +3.61696000
@H        -0.76936000        -0.57045000        +3.35672000
@H        -0.79210000        +1.84670000        +3.56155000
$end

$rem
JOBTYPE                   SP
METHOD                    B3LYP
DFT_D                     d3_op
BASIS                     6-311++G(d,p)
SYMMETRY                  False
THRESH                    12
SCF_CONVERGENCE           8
MAX_SUB_FILE_NUM          128
MEM_STATIC                400
MEM_TOTAL                 4000
$end
