memory 750000 mb

molecule mol {
0 1
C         -0.94375        0.66156        2.33051
H         -1.62244       -0.06226        2.78495
H         -1.33744        1.66453        2.49630
H          0.02118        0.58594        2.83840
--
0 1
C          0.02205        1.53828        0.22415
O         -0.11989        2.69393        0.54988
O          0.85649        1.15355       -0.75631
C          1.56028        2.19165       -1.45800
H          0.85431        2.84747       -1.97042
H          2.16189        2.78245       -0.76615
H          2.19003        1.67340       -2.17791
--
0 1
H         -0.29679       -1.60405        1.51273
C          1.12099       -1.29403        0.02609
O          1.42090       -1.84944       -1.00108
O          2.02827       -0.84631        0.92529
C          3.40622       -0.95192        0.53237
H          3.58376       -0.37838       -0.37932
H          3.97906       -0.53972        1.36037
H          3.67886       -1.99391        0.35797
C         -0.28264       -1.08660        0.54819
C         -0.78414        0.38820        0.82694
C         -1.40574       -1.70290       -0.35034
C         -1.43793       -0.93720       -1.66267
C         -1.92792        0.27965       -1.40806
C         -2.20160        0.35848        0.08617
C         -2.64585       -1.09844        0.34830
H         -1.99788        1.11562       -2.09188
H         -2.85355        1.16357        0.42158
H         -1.34620       -2.78712       -0.42904
H         -3.57646       -1.34004       -0.16714
H         -2.73460       -1.36237        1.40473
H         -1.02408       -1.30169       -2.59172

symmetry c1
no_reorient
no_com
}

set {
basis jun-cc-pvdz
scf_type df
guess sad
freeze_core true
}

energy('fisapt0')
