memory 750000 mb

molecule mol {
0 1
C         -1.08376        1.13847        2.18755
H         -1.25492        2.21797        2.19566
H         -1.98828        0.64711        2.54373
H         -0.27639        0.92824        2.88912
--
0 1
C          0.62698        1.38009        0.45207
O          1.41445        1.74379        1.29168
O          0.80322        1.62862       -0.85937
C          2.04886        2.24365       -1.22097
H          2.01850        2.34532       -2.30407
H          2.15114        3.22005       -0.74514
H          2.88342        1.60931       -0.91820
--
0 1
H         -0.86318       -1.29278        1.74556
C          0.57769       -1.70992        0.30855
O          0.55256       -2.90829        0.14817
O          1.68530       -0.97191        0.14265
C          2.87422       -1.68056       -0.25233
H          2.74620       -2.10390       -1.24988
H          3.09307       -2.48191        0.45391
H          3.66803       -0.93707       -0.24766
C         -0.65141       -0.92716        0.73611
C         -0.69578        0.66129        0.77127
C         -1.86244       -1.30460       -0.20555
C         -1.45577       -0.88760       -1.61074
C         -1.45776        0.44792       -1.64235
C         -1.86671        0.94630       -0.26079
C         -2.86281       -0.17931        0.12183
H         -1.14595        1.08566       -2.45548
H         -2.22641        1.97402       -0.21262
H         -2.18686       -2.33463       -0.07804
H         -3.72869       -0.19930       -0.54113
H         -3.20191       -0.16379        1.15814
H         -1.13419       -1.56774       -2.38812

symmetry c1
no_reorient
no_com
}

set {
basis jun-cc-pvdz
scf_type df
guess sad
freeze_core true
}

energy('fisapt0')
