memory 750000 mb

molecule mol {
0 1
C         -1.38074       -0.41086        2.13079
H         -2.45015       -0.20038        2.07317
H         -0.90636        0.34711        2.75930
H         -1.24671       -1.38063        2.61477
--
0 1
C         -1.04613        0.93040        0.07764
O         -0.26728        1.82583       -0.13215
O         -2.36287        1.01971       -0.22340
C         -2.79250        2.24771       -0.83695
H         -2.57755        3.09694       -0.18696
H         -3.86498        2.13804       -0.98346
H         -2.28778        2.39092       -1.79398
--
0 1
H          0.96838       -1.18708        1.78962
C          1.78398        0.33256        0.65434
O          2.14417        1.00615        1.59014
O          2.27379        0.46303       -0.59231
C          3.11013        1.61097       -0.81641
H          2.54380        2.52055       -0.61179
H          3.39518        1.56298       -1.86551
H          3.99228        1.57717       -0.17540
C          0.78428       -0.79990        0.78556
C         -0.75034       -0.42038        0.72514
C          0.89105       -2.00326       -0.21596
C          0.49644       -1.52676       -1.60490
C         -0.82061       -1.29943       -1.59613
C         -1.32295       -1.58820       -0.18900
C         -0.39438       -2.76142        0.18948
H         -1.41928       -0.86721       -2.38680
H         -2.39611       -1.72689       -0.07331
H          1.83578       -2.54063       -0.14271
H         -0.57770       -3.64401       -0.42602
H         -0.42687       -3.04154        1.24543
H          1.19313       -1.32071       -2.40405

symmetry c1
no_reorient
no_com
}

set {
basis jun-cc-pvdz
scf_type df
guess sad
freeze_core true
}

energy('fisapt0')
