memory 750000 mb

molecule mol {
0 1
H         -2.44017        2.13571        0.35844
--
0 1
C          0.12260        1.73557        0.09444
O         -0.11980        2.91866        0.16244
O          1.37207        1.24018        0.03450
C          2.44189        2.20042       -0.00278
H          2.31182        2.87893       -0.84651
H          2.46772        2.77540        0.92400
H          3.35069        1.61427       -0.11825
--
0 1
H         -1.47975       -2.66861       -0.29027
C          0.73521       -1.25777       -0.35213
O          1.22573       -1.42177       -1.44050
O          1.30195       -1.64597        0.80344
C          2.61832       -2.21964        0.69456
H          3.31043       -1.49304        0.26607
H          2.59660       -3.11029        0.06487
H          2.90819       -2.47363        1.71148
C         -0.64176       -0.69939       -0.11702
C         -0.91866        0.66543        0.06689
C         -1.69476       -1.61698       -0.13934
C         -3.01086       -1.19419        0.02172
C         -3.28911        0.15949        0.20434
C         -2.24811        1.07887        0.22302
H         -4.31183        0.49566        0.32845
H         -3.81526       -1.92095        0.00260

symmetry c1
no_reorient
no_com
}

set {
basis jun-cc-pvdz
scf_type df
guess sad
freeze_core true
}

energy('fisapt0')
