$molecule
0  1
C        +0.22270000        +1.04488000        +0.58595000
C        +0.62626000        -0.41353000        +0.99871000
C        +1.33008000        +1.39974000        -0.43491000
C        +2.63070000        +1.71700000        +0.32855000
C        +3.04336000        +0.29351000        +0.80300000
C        +1.94423000        -0.59299000        +0.15262000
O        +1.62840000        +0.13663000        -1.04376000
H        +3.37234000        +2.13782000        -0.35195000
H        +2.48236000        +2.42488000        +1.14651000
H        +4.02182000        +0.00994000        +0.41161000
H        +3.07359000        +0.18738000        +1.88928000
H        +1.03270000        +2.19943000        -1.08064000
H        +2.24339000        -1.61496000        +0.04786000
H        +0.81693000        -0.48905000        +2.04887000
H        -0.12524000        -1.15356000        +0.81843000
H        -0.74673000        +1.06811000        +0.13365000
H        +0.15552000        +1.72617000        +1.40828000
@C        +4.96343000        +3.80474000        +4.93435000
@C        +5.36699000        +2.34633000        +5.34711000
@C        +6.07081000        +4.15960000        +3.91349000
@C        +7.37143000        +4.47686000        +4.67695000
@C        +7.78409000        +3.05337000        +5.15140000
@C        +6.68496000        +2.16687000        +4.50102000
@O        +6.36913000        +2.89649000        +3.30464000
@H        +8.11307000        +4.89768000        +3.99645000
@H        +7.22309000        +5.18474000        +5.49491000
@H        +8.76255000        +2.76980000        +4.76001000
@H        +7.81432000        +2.94724000        +6.23768000
@H        +5.77343000        +4.95929000        +3.26776000
@H        +6.98412000        +1.14490000        +4.39626000
@H        +5.55766000        +2.27081000        +6.39727000
@H        +4.61549000        +1.60630000        +5.16683000
@H        +3.99400000        +3.82797000        +4.48205000
@H        +4.89625000        +4.48603000        +5.75668000
$end

$rem
JOBTYPE                   SP
METHOD                    B3LYP
DFT_D                     d3_op
BASIS                     6-311++G(d,p)
SYMMETRY                  False
THRESH                    12
SCF_CONVERGENCE           8
MAX_SUB_FILE_NUM          128
MEM_STATIC                400
MEM_TOTAL                 4000
$end
