$molecule
0  1
C        +0.22270000        +1.04488000        +0.58595000
C        +0.62626000        -0.41353000        +0.99871000
C        +1.33008000        +1.39974000        -0.43491000
C        +2.63070000        +1.71700000        +0.32855000
C        +3.04336000        +0.29351000        +0.80300000
C        +1.94423000        -0.59299000        +0.15262000
O        +1.62840000        +0.13663000        -1.04376000
H        +3.37234000        +2.13782000        -0.35195000
H        +2.48236000        +2.42488000        +1.14651000
H        +4.02182000        +0.00994000        +0.41161000
H        +3.07359000        +0.18738000        +1.88928000
H        +1.03270000        +2.19943000        -1.08064000
H        +2.24339000        -1.61496000        +0.04786000
H        +0.81693000        -0.48905000        +2.04887000
H        -0.12524000        -1.15356000        +0.81843000
H        -0.74673000        +1.06811000        +0.13365000
H        +0.15552000        +1.72617000        +1.40828000
@C        +3.54121000        +2.97678000        +3.62983000
@C        +3.94477000        +1.51837000        +4.04259000
@C        +4.64859000        +3.33164000        +2.60897000
@C        +5.94921000        +3.64890000        +3.37243000
@C        +6.36187000        +2.22541000        +3.84688000
@C        +5.26274000        +1.33891000        +3.19650000
@O        +4.94691000        +2.06853000        +2.00012000
@H        +6.69085000        +4.06972000        +2.69193000
@H        +5.80087000        +4.35678000        +4.19039000
@H        +7.34033000        +1.94184000        +3.45549000
@H        +6.39210000        +2.11928000        +4.93316000
@H        +4.35121000        +4.13133000        +1.96324000
@H        +5.56190000        +0.31694000        +3.09174000
@H        +4.13544000        +1.44285000        +5.09275000
@H        +3.19327000        +0.77834000        +3.86231000
@H        +2.57178000        +3.00001000        +3.17753000
@H        +3.47403000        +3.65807000        +4.45216000
$end

$rem
JOBTYPE                   SP
METHOD                    B3LYP
DFT_D                     d3_op
BASIS                     6-311++G(d,p)
SYMMETRY                  False
THRESH                    12
SCF_CONVERGENCE           8
MAX_SUB_FILE_NUM          128
MEM_STATIC                400
MEM_TOTAL                 4000
$end
