$molecule
0  1
--
0  1
C        +0.22270000        +1.04488000        +0.58595000
C        +0.62626000        -0.41353000        +0.99871000
C        +1.33008000        +1.39974000        -0.43491000
C        +2.63070000        +1.71700000        +0.32855000
C        +3.04336000        +0.29351000        +0.80300000
C        +1.94423000        -0.59299000        +0.15262000
O        +1.62840000        +0.13663000        -1.04376000
H        +3.37234000        +2.13782000        -0.35195000
H        +2.48236000        +2.42488000        +1.14651000
H        +4.02182000        +0.00994000        +0.41161000
H        +3.07359000        +0.18738000        +1.88928000
H        +1.03270000        +2.19943000        -1.08064000
H        +2.24339000        -1.61496000        +0.04786000
H        +0.81693000        -0.48905000        +2.04887000
H        -0.12524000        -1.15356000        +0.81843000
H        -0.74673000        +1.06811000        +0.13365000
H        +0.15552000        +1.72617000        +1.40828000
--
0  1
C        +2.59307000        +2.42481000        +2.76015000
C        +2.99663000        +0.96640000        +3.17291000
C        +3.70045000        +2.77967000        +1.73929000
C        +5.00107000        +3.09693000        +2.50275000
C        +5.41373000        +1.67344000        +2.97720000
C        +4.31460000        +0.78694000        +2.32682000
O        +3.99877000        +1.51656000        +1.13044000
H        +5.74271000        +3.51775000        +1.82225000
H        +4.85273000        +3.80481000        +3.32071000
H        +6.39219000        +1.38987000        +2.58581000
H        +5.44396000        +1.56731000        +4.06348000
H        +3.40307000        +3.57936000        +1.09356000
H        +4.61376000        -0.23503000        +2.22206000
H        +3.18730000        +0.89088000        +4.22307000
H        +2.24513000        +0.22637000        +2.99263000
H        +1.62364000        +2.44804000        +2.30785000
H        +2.52589000        +3.10610000        +3.58248000
$end

$rem
JOBTYPE                   SP
METHOD                    B3LYP
DFT_D                     d3_op
BASIS                     6-311++G(d,p)
SYMMETRY                  False
THRESH                    12
SCF_CONVERGENCE           8
MAX_SUB_FILE_NUM          128
MEM_STATIC                400
MEM_TOTAL                 4000
$end
