$molecule
0  1
C        +0.22270000        +1.04488000        +0.58595000
C        +0.62626000        -0.41353000        +0.99871000
C        +1.33008000        +1.39974000        -0.43491000
C        +2.63070000        +1.71700000        +0.32855000
C        +3.04336000        +0.29351000        +0.80300000
C        +1.94423000        -0.59299000        +0.15262000
O        +1.62840000        +0.13663000        -1.04376000
H        +3.37234000        +2.13782000        -0.35195000
H        +2.48236000        +2.42488000        +1.14651000
H        +4.02182000        +0.00994000        +0.41161000
H        +3.07359000        +0.18738000        +1.88928000
H        +1.03270000        +2.19943000        -1.08064000
C        +2.35450000        -2.01267000        -0.16812000
H        +3.25743000        -2.00195000        -0.74215000
H        +1.57951000        -2.48932000        -0.73123000
H        +2.51687000        -2.55129000        +0.74206000
H        -0.74673000        +1.06811000        +0.13365000
H        +0.15552000        +1.72617000        +1.40828000
H        +0.81693000        -0.48905000        +2.04887000
H        -0.12524000        -1.15356000        +0.81843000
@C        +5.28493000        +3.54001000        +4.72698000
@C        +5.68849000        +2.08160000        +5.13974000
@C        +6.39231000        +3.89487000        +3.70612000
@C        +7.69293000        +4.21213000        +4.46958000
@C        +8.10559000        +2.78864000        +4.94403000
@C        +7.00646000        +1.90214000        +4.29365000
@O        +6.69063000        +2.63176000        +3.09727000
@H        +8.43457000        +4.63295000        +3.78908000
@H        +7.54459000        +4.92001000        +5.28754000
@H        +9.08405000        +2.50507000        +4.55264000
@H        +8.13582000        +2.68251000        +6.03031000
@H        +6.09493000        +4.69456000        +3.06039000
@C        +7.41673000        +0.48246000        +3.97291000
@H        +8.31966000        +0.49318000        +3.39888000
@H        +6.64174000        +0.00581000        +3.40980000
@H        +7.57910000        -0.05616000        +4.88309000
@H        +4.31550000        +3.56324000        +4.27468000
@H        +5.21775000        +4.22130000        +5.54931000
@H        +5.87916000        +2.00608000        +6.18990000
@H        +4.93699000        +1.34157000        +4.95946000
$end

$rem
JOBTYPE                   SP
METHOD                    B3LYP
DFT_D                     d3_op
BASIS                     6-311++G(d,p)
SYMMETRY                  False
THRESH                    12
SCF_CONVERGENCE           8
MAX_SUB_FILE_NUM          128
MEM_STATIC                400
MEM_TOTAL                 4000
$end
