$molecule
0  1
C        +3.76626000        +2.79147000        +3.48467000
C        +4.16982000        +1.33306000        +3.89743000
C        +4.87364000        +3.14633000        +2.46381000
C        +6.17426000        +3.46359000        +3.22727000
C        +6.58692000        +2.04010000        +3.70172000
C        +5.48779000        +1.15360000        +3.05134000
O        +5.17196000        +1.88322000        +1.85496000
H        +6.91590000        +3.88441000        +2.54677000
H        +6.02592000        +4.17147000        +4.04523000
H        +7.56538000        +1.75653000        +3.31033000
H        +6.61715000        +1.93397000        +4.78800000
H        +4.57626000        +3.94602000        +1.81808000
C        +5.89806000        -0.26608000        +2.73060000
H        +6.80099000        -0.25536000        +2.15657000
H        +5.12307000        -0.74273000        +2.16749000
H        +6.06043000        -0.80470000        +3.64078000
H        +2.79683000        +2.81470000        +3.03237000
H        +3.69908000        +3.47276000        +4.30700000
H        +4.36049000        +1.25754000        +4.94759000
H        +3.41832000        +0.59303000        +3.71715000
@C        +0.22270000        +1.04488000        +0.58595000
@C        +0.62626000        -0.41353000        +0.99871000
@C        +1.33008000        +1.39974000        -0.43491000
@C        +2.63070000        +1.71700000        +0.32855000
@C        +3.04336000        +0.29351000        +0.80300000
@C        +1.94423000        -0.59299000        +0.15262000
@O        +1.62840000        +0.13663000        -1.04376000
@H        +3.37234000        +2.13782000        -0.35195000
@H        +2.48236000        +2.42488000        +1.14651000
@H        +4.02182000        +0.00994000        +0.41161000
@H        +3.07359000        +0.18738000        +1.88928000
@H        +1.03270000        +2.19943000        -1.08064000
@C        +2.35450000        -2.01267000        -0.16812000
@H        +3.25743000        -2.00195000        -0.74215000
@H        +1.57951000        -2.48932000        -0.73123000
@H        +2.51687000        -2.55129000        +0.74206000
@H        -0.74673000        +1.06811000        +0.13365000
@H        +0.15552000        +1.72617000        +1.40828000
@H        +0.81693000        -0.48905000        +2.04887000
@H        -0.12524000        -1.15356000        +0.81843000
$end

$rem
JOBTYPE                   SP
METHOD                    B3LYP
DFT_D                     d3_op
BASIS                     6-311++G(d,p)
SYMMETRY                  False
THRESH                    12
SCF_CONVERGENCE           8
MAX_SUB_FILE_NUM          128
MEM_STATIC                400
MEM_TOTAL                 4000
$end
