$molecule
0  1
C        +0.21830000        +2.04514000        +3.93567000
C        +0.66277000        +0.61443000        +4.36038000
C        +1.34225000        +2.42111000        +2.94573000
C        +2.64196000        +2.73124000        +3.71920000
C        +3.08060000        +1.30018000        +4.14777000
C        +1.95928000        +0.42462000        +3.53006000
O        +1.64333000        +1.16070000        +2.32178000
H        +3.38044000        +3.19041000        +3.05950000
H        +2.47596000        +3.40637000        +4.56171000
H        +4.04575000        +1.03367000        +3.71242000
H        +3.15196000        +1.17528000        +5.23058000
H        +1.06852000        +3.14790000        +2.18252000
C        +2.33705000        -1.00098000        +3.20092000
H        +3.21238000        -1.02538000        +2.54717000
H        +1.51298000        -1.51145000        +2.69668000
H        +2.57531000        -1.55066000        +4.11594000
H        -0.74748000        +2.02419000        +3.42771000
H        +0.14758000        +2.74451000        +4.77144000
H        +0.84224000        +0.51826000        +5.43348000
H        -0.07845000        -0.13480000        +4.07370000
@C        +0.20553000        +1.04146000        +0.58269000
@C        +0.65000000        -0.38925000        +1.00740000
@C        +1.32948000        +1.41743000        -0.40725000
@C        +2.62919000        +1.72756000        +0.36622000
@C        +3.06783000        +0.29650000        +0.79479000
@C        +1.94651000        -0.57906000        +0.17708000
@O        +1.63056000        +0.15702000        -1.03120000
@H        +3.36767000        +2.18673000        -0.29348000
@H        +2.46319000        +2.40269000        +1.20873000
@H        +4.03298000        +0.02999000        +0.35944000
@H        +3.13919000        +0.17160000        +1.87760000
@H        +1.05575000        +2.14422000        -1.17046000
@C        +2.32428000        -2.00466000        -0.15206000
@H        +3.19961000        -2.02906000        -0.80581000
@H        +1.50021000        -2.51513000        -0.65630000
@H        +2.56254000        -2.55434000        +0.76296000
@H        -0.76025000        +1.02051000        +0.07473000
@H        +0.13481000        +1.74083000        +1.41846000
@H        +0.82947000        -0.48542000        +2.08050000
@H        -0.09122000        -1.13848000        +0.72072000
$end

$rem
JOBTYPE                   SP
METHOD                    B3LYP
DFT_D                     d3_op
BASIS                     6-311++G(d,p)
SYMMETRY                  False
THRESH                    12
SCF_CONVERGENCE           8
MAX_SUB_FILE_NUM          128
MEM_STATIC                400
MEM_TOTAL                 4000
$end
