$molecule
0  1
--
0  1
C        +0.22270000        +1.04488000        +0.58595000
C        +0.62626000        -0.41353000        +0.99871000
C        +1.33008000        +1.39974000        -0.43491000
C        +2.63070000        +1.71700000        +0.32855000
C        +3.04336000        +0.29351000        +0.80300000
C        +1.94423000        -0.59299000        +0.15262000
O        +1.62840000        +0.13663000        -1.04376000
H        +3.37234000        +2.13782000        -0.35195000
H        +2.48236000        +2.42488000        +1.14651000
H        +4.02182000        +0.00994000        +0.41161000
H        +3.07359000        +0.18738000        +1.88928000
H        +1.03270000        +2.19943000        -1.08064000
C        +2.35450000        -2.01267000        -0.16812000
H        +3.25743000        -2.00195000        -0.74215000
H        +1.57951000        -2.48932000        -0.73123000
H        +2.51687000        -2.55129000        +0.74206000
H        -0.74673000        +1.06811000        +0.13365000
H        +0.15552000        +1.72617000        +1.40828000
H        +0.81693000        -0.48905000        +2.04887000
H        -0.12524000        -1.15356000        +0.81843000
--
0  1
C        +2.75381000        +2.29245000        +2.65647000
C        +3.15737000        +0.83404000        +3.06923000
C        +3.86119000        +2.64731000        +1.63561000
C        +5.16181000        +2.96457000        +2.39907000
C        +5.57447000        +1.54108000        +2.87352000
C        +4.47534000        +0.65458000        +2.22314000
O        +4.15951000        +1.38420000        +1.02676000
H        +5.90345000        +3.38539000        +1.71857000
H        +5.01347000        +3.67245000        +3.21703000
H        +6.55293000        +1.25751000        +2.48213000
H        +5.60470000        +1.43495000        +3.95980000
H        +3.56381000        +3.44700000        +0.98988000
C        +4.88561000        -0.76510000        +1.90240000
H        +5.78854000        -0.75438000        +1.32837000
H        +4.11062000        -1.24175000        +1.33929000
H        +5.04798000        -1.30372000        +2.81258000
H        +1.78438000        +2.31568000        +2.20417000
H        +2.68663000        +2.97374000        +3.47880000
H        +3.34804000        +0.75852000        +4.11939000
H        +2.40587000        +0.09401000        +2.88895000
$end

$rem
JOBTYPE                   SP
METHOD                    B3LYP
DFT_D                     d3_op
BASIS                     6-311++G(d,p)
SYMMETRY                  False
THRESH                    12
SCF_CONVERGENCE           8
MAX_SUB_FILE_NUM          128
MEM_STATIC                400
MEM_TOTAL                 4000
$end
