$molecule
0  1
--
0  1
C        -0.54444000        -0.68370000        -0.06689000
C        -0.55709000        +0.71878000        +0.05493000
C        -1.74320000        -1.41616000        -0.12552000
C        -2.93952000        -0.70056000        -0.05285000
C        -2.95313000        +0.68255000        +0.06934000
C        -1.77161000        +1.42404000        +0.12810000
H        -3.90354000        +1.20325000        +0.11710000
H        -3.87892000        -1.24211000        -0.08988000
C        -1.83960000        +2.92746000        +0.24839000
H        -1.24214000        +3.42352000        -0.52065000
H        -1.45503000        +3.26427000        +1.21284000
H        -2.87211000        +3.26623000        +0.14638000
H        -1.73878000        -2.44393000        -0.21875000
H        +0.35825000        -1.18166000        -0.11386000
H        +0.33551000        +1.23549000        +0.09097000
--
0  1
C        -0.66406000        -0.93394000        +3.42210000
C        -0.67671000        +0.46854000        +3.54392000
C        -1.86282000        -1.66640000        +3.36347000
C        -3.05914000        -0.95080000        +3.43614000
C        -3.07275000        +0.43231000        +3.55833000
C        -1.89123000        +1.17380000        +3.61709000
H        -4.02316000        +0.95301000        +3.60609000
H        -3.99854000        -1.49235000        +3.39911000
C        -1.95922000        +2.67722000        +3.73738000
H        -1.36176000        +3.17328000        +2.96834000
H        -1.57465000        +3.01403000        +4.70183000
H        -2.99173000        +3.01599000        +3.63537000
H        -1.85840000        -2.69417000        +3.27024000
H        +0.23863000        -1.43190000        +3.37513000
H        +0.21589000        +0.98525000        +3.57996000
$end

$rem
JOBTYPE                   SP
METHOD                    B3LYP
DFT_D                     d3_op
BASIS                     6-311++G(d,p)
SYMMETRY                  False
THRESH                    12
SCF_CONVERGENCE           8
MAX_SUB_FILE_NUM          128
MEM_STATIC                400
MEM_TOTAL                 4000
$end
