$molecule
0  1
C        -0.54444000        -0.68370000        -0.06689000
C        -0.55709000        +0.71878000        +0.05493000
C        -1.74320000        -1.41616000        -0.12552000
C        -2.93952000        -0.70056000        -0.05285000
C        -2.95313000        +0.68255000        +0.06934000
C        -1.77161000        +1.42404000        +0.12810000
H        -3.90354000        +1.20325000        +0.11710000
H        -3.87892000        -1.24211000        -0.08988000
C        -1.83960000        +2.92746000        +0.24839000
H        -1.24214000        +3.42352000        -0.52065000
H        -1.45503000        +3.26427000        +1.21284000
H        -2.87211000        +3.26623000        +0.14638000
H        -1.73878000        -2.44393000        -0.21875000
H        +0.35825000        -1.18166000        -0.11386000
H        +0.33551000        +1.23549000        +0.09097000
@C        -0.78368000        -1.18418000        +6.91110000
@C        -0.79633000        +0.21830000        +7.03292000
@C        -1.98244000        -1.91664000        +6.85247000
@C        -3.17876000        -1.20104000        +6.92514000
@C        -3.19237000        +0.18207000        +7.04733000
@C        -2.01085000        +0.92356000        +7.10609000
@H        -4.14278000        +0.70277000        +7.09509000
@H        -4.11816000        -1.74259000        +6.88811000
@C        -2.07884000        +2.42698000        +7.22638000
@H        -1.48138000        +2.92304000        +6.45734000
@H        -1.69427000        +2.76379000        +8.19083000
@H        -3.11135000        +2.76575000        +7.12437000
@H        -1.97802000        -2.94441000        +6.75924000
@H        +0.11901000        -1.68214000        +6.86413000
@H        +0.09627000        +0.73501000        +7.06896000
$end

$rem
JOBTYPE                   SP
METHOD                    B3LYP
DFT_D                     d3_op
BASIS                     6-311++G(d,p)
SYMMETRY                  False
THRESH                    12
SCF_CONVERGENCE           8
MAX_SUB_FILE_NUM          128
MEM_STATIC                400
MEM_TOTAL                 4000
$end
