$molecule
0  1
C        -0.71191000        -1.03404000        +4.81770000
C        -0.72456000        +0.36844000        +4.93952000
C        -1.91067000        -1.76650000        +4.75907000
C        -3.10699000        -1.05090000        +4.83174000
C        -3.12060000        +0.33221000        +4.95393000
C        -1.93908000        +1.07370000        +5.01269000
H        -4.07101000        +0.85291000        +5.00169000
H        -4.04639000        -1.59245000        +4.79471000
C        -2.00707000        +2.57712000        +5.13298000
H        -1.40961000        +3.07318000        +4.36394000
H        -1.62250000        +2.91393000        +6.09743000
H        -3.03958000        +2.91589000        +5.03097000
H        -1.90625000        -2.79427000        +4.66584000
H        +0.19078000        -1.53200000        +4.77073000
H        +0.16804000        +0.88515000        +4.97556000
@C        -0.54444000        -0.68370000        -0.06689000
@C        -0.55709000        +0.71878000        +0.05493000
@C        -1.74320000        -1.41616000        -0.12552000
@C        -2.93952000        -0.70056000        -0.05285000
@C        -2.95313000        +0.68255000        +0.06934000
@C        -1.77161000        +1.42404000        +0.12810000
@H        -3.90354000        +1.20325000        +0.11710000
@H        -3.87892000        -1.24211000        -0.08988000
@C        -1.83960000        +2.92746000        +0.24839000
@H        -1.24214000        +3.42352000        -0.52065000
@H        -1.45503000        +3.26427000        +1.21284000
@H        -2.87211000        +3.26623000        +0.14638000
@H        -1.73878000        -2.44393000        -0.21875000
@H        +0.35825000        -1.18166000        -0.11386000
@H        +0.33551000        +1.23549000        +0.09097000
$end

$rem
JOBTYPE                   SP
METHOD                    B3LYP
DFT_D                     d3_op
BASIS                     6-311++G(d,p)
SYMMETRY                  False
THRESH                    12
SCF_CONVERGENCE           8
MAX_SUB_FILE_NUM          128
MEM_STATIC                400
MEM_TOTAL                 4000
$end
