$molecule
0  1
--
0  1
C        -0.54444000        -0.68370000        -0.06689000
C        -0.55709000        +0.71878000        +0.05493000
C        -1.74320000        -1.41616000        -0.12552000
C        -2.93952000        -0.70056000        -0.05285000
C        -2.95313000        +0.68255000        +0.06934000
C        -1.77161000        +1.42404000        +0.12810000
H        -3.90354000        +1.20325000        +0.11710000
H        -3.87892000        -1.24211000        -0.08988000
C        -1.83960000        +2.92746000        +0.24839000
C        -1.78103000        -2.92226000        -0.24590000
H        -1.39752000        -3.25223000        -1.21323000
H        -2.80572000        -3.28175000        -0.13627000
H        -1.16958000        -3.40777000        +0.51926000
H        -1.24214000        +3.42352000        -0.52065000
H        -1.45503000        +3.26427000        +1.21284000
H        -2.87211000        +3.26623000        +0.14638000
H        +0.35825000        -1.18166000        -0.11386000
H        +0.33551000        +1.23549000        +0.09097000
--
0  1
C        -2.67775000        +0.47264000        +6.49907000
C        -2.69040000        +1.87512000        +6.62089000
C        -3.87651000        -0.25982000        +6.44044000
C        -5.07283000        +0.45578000        +6.51311000
C        -5.08644000        +1.83889000        +6.63530000
C        -3.90492000        +2.58038000        +6.69406000
H        -6.03685000        +2.35959000        +6.68306000
H        -6.01223000        -0.08577000        +6.47608000
C        -3.97291000        +4.08380000        +6.81435000
C        -3.91434000        -1.76592000        +6.32006000
H        -3.53083000        -2.09589000        +5.35273000
H        -4.93903000        -2.12541000        +6.42969000
H        -3.30289000        -2.25143000        +7.08522000
H        -3.37545000        +4.57986000        +6.04531000
H        -3.58834000        +4.42061000        +7.77880000
H        -5.00542000        +4.42257000        +6.71234000
H        -1.77506000        -0.02532000        +6.45210000
H        -1.79780000        +2.39183000        +6.65693000
$end

$rem
JOBTYPE                   SP
METHOD                    B3LYP
DFT_D                     d3_op
BASIS                     6-311++G(d,p)
SYMMETRY                  False
THRESH                    12
SCF_CONVERGENCE           8
MAX_SUB_FILE_NUM          128
MEM_STATIC                400
MEM_TOTAL                 4000
$end
