$molecule
0  1
--
0  1
C        -0.54444000        -0.68370000        -0.06689000
C        -0.55709000        +0.71878000        +0.05493000
C        -1.74320000        -1.41616000        -0.12552000
C        -2.93952000        -0.70056000        -0.05285000
C        -2.95313000        +0.68255000        +0.06934000
C        -1.77161000        +1.42404000        +0.12810000
H        -3.90354000        +1.20325000        +0.11710000
H        -3.87892000        -1.24211000        -0.08988000
C        -1.83960000        +2.92746000        +0.24839000
C        -1.78103000        -2.92226000        -0.24590000
H        -1.39752000        -3.25223000        -1.21323000
H        -2.80572000        -3.28175000        -0.13627000
H        -1.16958000        -3.40777000        +0.51926000
H        -1.24214000        +3.42352000        -0.52065000
H        -1.45503000        +3.26427000        +1.21284000
H        -2.87211000        +3.26623000        +0.14638000
H        +0.35825000        -1.18166000        -0.11386000
H        +0.33551000        +1.23549000        +0.09097000
--
0  1
C        -2.03776000        +0.12574000        +4.52928000
C        -2.05041000        +1.52822000        +4.65110000
C        -3.23652000        -0.60672000        +4.47065000
C        -4.43284000        +0.10888000        +4.54332000
C        -4.44645000        +1.49199000        +4.66551000
C        -3.26493000        +2.23348000        +4.72427000
H        -5.39686000        +2.01269000        +4.71327000
H        -5.37224000        -0.43267000        +4.50629000
C        -3.33292000        +3.73690000        +4.84456000
C        -3.27435000        -2.11282000        +4.35027000
H        -2.89084000        -2.44279000        +3.38294000
H        -4.29904000        -2.47231000        +4.45990000
H        -2.66290000        -2.59833000        +5.11543000
H        -2.73546000        +4.23296000        +4.07552000
H        -2.94835000        +4.07371000        +5.80901000
H        -4.36543000        +4.07567000        +4.74255000
H        -1.13507000        -0.37222000        +4.48231000
H        -1.15781000        +2.04493000        +4.68714000
$end

$rem
JOBTYPE                   SP
METHOD                    B3LYP
DFT_D                     d3_op
BASIS                     6-311++G(d,p)
SYMMETRY                  False
THRESH                    12
SCF_CONVERGENCE           8
MAX_SUB_FILE_NUM          128
MEM_STATIC                400
MEM_TOTAL                 4000
$end
