$molecule
0  1
C        -1.61110000        -0.10553000        +3.21609000
C        -1.62375000        +1.29695000        +3.33791000
C        -2.80986000        -0.83799000        +3.15746000
C        -4.00618000        -0.12239000        +3.23013000
C        -4.01979000        +1.26072000        +3.35232000
C        -2.83827000        +2.00221000        +3.41108000
H        -4.97020000        +1.78142000        +3.40008000
H        -4.94558000        -0.66394000        +3.19310000
C        -2.90626000        +3.50563000        +3.53137000
C        -2.84769000        -2.34409000        +3.03708000
H        -2.46418000        -2.67406000        +2.06975000
H        -3.87238000        -2.70358000        +3.14671000
H        -2.23624000        -2.82960000        +3.80224000
H        -2.30880000        +4.00169000        +2.76233000
H        -2.52169000        +3.84244000        +4.49582000
H        -3.93877000        +3.84440000        +3.42936000
H        -0.70841000        -0.60349000        +3.16912000
H        -0.73115000        +1.81366000        +3.37395000
@C        -0.54444000        -0.68370000        -0.06689000
@C        -0.55709000        +0.71878000        +0.05493000
@C        -1.74320000        -1.41616000        -0.12552000
@C        -2.93952000        -0.70056000        -0.05285000
@C        -2.95313000        +0.68255000        +0.06934000
@C        -1.77161000        +1.42404000        +0.12810000
@H        -3.90354000        +1.20325000        +0.11710000
@H        -3.87892000        -1.24211000        -0.08988000
@C        -1.83960000        +2.92746000        +0.24839000
@C        -1.78103000        -2.92226000        -0.24590000
@H        -1.39752000        -3.25223000        -1.21323000
@H        -2.80572000        -3.28175000        -0.13627000
@H        -1.16958000        -3.40777000        +0.51926000
@H        -1.24214000        +3.42352000        -0.52065000
@H        -1.45503000        +3.26427000        +1.21284000
@H        -2.87211000        +3.26623000        +0.14638000
@H        +0.35825000        -1.18166000        -0.11386000
@H        +0.33551000        +1.23549000        +0.09097000
$end

$rem
JOBTYPE                   SP
METHOD                    B3LYP
DFT_D                     d3_op
BASIS                     6-311++G(d,p)
SYMMETRY                  False
THRESH                    12
SCF_CONVERGENCE           8
MAX_SUB_FILE_NUM          128
MEM_STATIC                400
MEM_TOTAL                 4000
$end
