&CONTROL
  calculation       = 'cp-wf',
  title             = "alpha_glycine_412: CP electron minimization with Wannier (PBE0)",
  restart_mode      = "restart",
  pseudo_dir        = '/home/junteng/QE-SVN/pseudopotentials/',
  outdir            = './',
  prefix            = "C412",
  nstep             = 1000,
  iprint            = 1,
  isave             = 100,
  dt                = 4.D0,
  ndr               = 50,
  ndw               = 51,
  ekin_conv_thr     = 1.D-5,
  etot_conv_thr     = 1.D-5,
  max_seconds       = 3000,
/
&SYSTEM
  ibrav             = 14,
  A                 = 19.476000,
  B                 = 11.139000,
  C                 = 10.755400,
  cosAB             =  0.000000,
  cosAC             = -0.452248,
  cosBC             =  0.000000,
  nat               = 320,
  ntyp              = 4,
  ecutwfc           = 85.D0,
/
&ELECTRONS
  emass             = 400.D0,
  emass_cutoff      = 3.D0,
  ortho_eps         = 1.D-8,
  ortho_max         = 300,
  electron_dynamics = "damp",
  electron_damping  = 0.1D0,
/
&IONS
  ion_dynamics      = "none", 
/
&WANNIER
  nit               = 60,
  calwf             = 3,
  tolw              = 1.D-6,
  nsteps            = 20,
  adapt             = .FALSE.
  wfdt              = 4.D0,
  wf_q              = 500,
  wf_friction       = 0.3D0,
/
ATOMIC_SPECIES
C 12.0D0 C_HSCV_PBE-1.0.UPF 
H  2.0D0 H_HSCV_PBE-1.0.UPF 
O 16.0D0 O_HSCV_PBE-1.0.UPF
N 14.0D0 N_HSCV_PBE-1.0.UPF 
ATOMIC_POSITIONS {angstrom}
O         -1.37378        9.37013        4.31094
O          1.52881       10.20221        3.70277
C          2.30559        9.69427        4.53685
C          4.20302        9.46258        1.14728
N          2.91989       10.14095        1.34249
H          4.08843        8.51020        1.28973
H         -0.02489        9.80900        1.78999
H          2.62598        9.98611        2.17082
H          2.32485        9.82014        0.75878
H          3.01818       11.01202        1.21779
O          0.16020        3.80063        2.88355
O          3.81073        1.76887        0.48539
O          2.27675        7.33837        1.91278
O          2.12661        4.63271        3.49173
O          0.90814        0.93679        1.09356
O          0.31033        6.50629        1.30460
C          1.34982        4.12477        2.65765
C          0.13135        1.44473        0.25948
C          1.08712        7.01423        2.13868
C          1.88445        3.89308        1.25088
C         -1.76607        1.67642        3.64905
C          0.55249        7.24592        3.54545
N          3.16758        4.57145        1.05567
N         -0.48295        0.99805        3.45384
N         -0.73063        6.56755        3.74066
H          1.99905        2.94070        1.10843
H         -1.65148        2.62880        3.50660
H          0.43790        8.19830        3.68790
H          1.24337        4.23950        0.60817
H          2.46184        1.33000        3.00634
H          1.19358        6.89950        4.18815
H          3.46149        4.41661        0.22735
H         -0.18904        1.15289        2.62551
H         -1.02454        6.72239        4.56898
H          3.76263        4.25064        1.63939
H          0.11210        1.31886        4.03755
H         -1.32568        6.88836        3.15694
H          3.06929        5.44252        1.18038
H         -0.58124        0.12698        3.57854
H         -0.63234        5.69648        3.61595
O          3.49522        9.37013        4.31094
O          6.39781       10.20221        3.70277
C          7.17459        9.69427        4.53685
C          9.07202        9.46258        1.14728
N          7.78889       10.14095        1.34249
H          8.95743        8.51020        1.28973
H          4.84411        9.80900        1.78999
H          7.49498        9.98611        2.17082
H          7.19385        9.82014        0.75878
H          7.88718       11.01202        1.21779
O          5.02920        3.80063        2.88355
O          8.67973        1.76887        0.48539
O          7.14575        7.33837        1.91278
O          6.99561        4.63271        3.49173
O          5.77714        0.93679        1.09356
O          5.17933        6.50629        1.30460
C          6.21882        4.12477        2.65765
C          5.00035        1.44473        0.25948
C          5.95612        7.01423        2.13868
C          6.75345        3.89308        1.25088
C          3.10293        1.67642        3.64905
C          5.42149        7.24592        3.54545
N          8.03658        4.57145        1.05567
N          4.38605        0.99805        3.45384
N          4.13837        6.56755        3.74066
H          6.86805        2.94070        1.10843
H          3.21752        2.62880        3.50660
H          5.30690        8.19830        3.68790
H          6.11237        4.23950        0.60817
H          7.33084        1.33000        3.00634
H          6.06258        6.89950        4.18815
H          8.33049        4.41661        0.22735
H          4.67996        1.15289        2.62551
H          3.84446        6.72239        4.56898
H          8.63163        4.25064        1.63939
H          4.98110        1.31886        4.03755
H          3.54332        6.88836        3.15694
H          7.93829        5.44252        1.18038
H          4.28776        0.12698        3.57854
H          4.23666        5.69648        3.61595
O         -3.80584        9.37013        9.10727
O         -0.90325       10.20221        8.49909
C         -0.12646        9.69427        9.33318
C          1.77096        9.46258        5.94361
N          0.48784       10.14095        6.13882
H          1.65637        8.51020        6.08606
H         -2.45695        9.80900        6.58632
H          0.19393        9.98611        6.96715
H         -0.10721        9.82014        5.55511
H          0.58613       11.01202        6.01412
O         -2.27185        3.80063        7.67988
O          1.37867        1.76887        5.28172
O         -0.15531        7.33837        6.70910
O         -0.30544        4.63271        8.28806
O         -1.52391        0.93679        5.88989
O         -2.12172        6.50629        6.10093
C         -1.08223        4.12477        7.45397
C         -2.30070        1.44473        5.05581
C         -1.34493        7.01423        6.93501
C         -0.54760        3.89308        6.04721
C         -4.19813        1.67642        8.44538
C         -1.87956        7.24592        8.34177
N          0.73553        4.57145        5.85200
N         -2.91500        0.99805        8.25016
N         -3.16269        6.56755        8.53699
H         -0.43301        2.94070        5.90476
H         -4.08353        2.62880        8.30292
H         -1.99415        8.19830        8.48423
H         -1.18869        4.23950        5.40450
H          0.02978        1.33000        7.80267
H         -1.23847        6.89950        8.98448
H          1.02943        4.41661        5.02367
H         -2.62109        1.15289        7.42184
H         -3.45660        6.72239        9.36531
H          1.33057        4.25064        6.43571
H         -2.31996        1.31886        8.83388
H         -3.75773        6.88836        7.95327
H          0.63723        5.44252        5.97671
H         -3.01329        0.12698        8.37487
H         -3.06440        5.69648        8.41228
O          1.06316        9.37013        9.10727
O          3.96575       10.20221        8.49909
C          4.74254        9.69427        9.33318
C          6.63996        9.46258        5.94361
N          5.35684       10.14095        6.13882
H          6.52537        8.51020        6.08606
H          2.41205        9.80900        6.58632
H          5.06293        9.98611        6.96715
H          4.76179        9.82014        5.55511
H          5.45513       11.01202        6.01412
O          2.59715        3.80063        7.67988
O          6.24767        1.76887        5.28172
O          4.71369        7.33837        6.70910
O          4.56356        4.63271        8.28806
O          3.34509        0.93679        5.88989
O          2.74728        6.50629        6.10093
C          3.78677        4.12477        7.45397
C          2.56830        1.44473        5.05581
C          3.52407        7.01423        6.93501
C          4.32140        3.89308        6.04721
C          0.67087        1.67642        8.44538
C          2.98944        7.24592        8.34177
N          5.60453        4.57145        5.85200
N          1.95400        0.99805        8.25016
N          1.70631        6.56755        8.53699
H          4.43599        2.94070        5.90476
H          0.78547        2.62880        8.30292
H          2.87485        8.19830        8.48423
H          3.68031        4.23950        5.40450
H          4.89878        1.33000        7.80267
H          3.63053        6.89950        8.98448
H          5.89843        4.41661        5.02367
H          2.24791        1.15289        7.42184
H          1.41240        6.72239        9.36531
H          6.19957        4.25064        6.43571
H          2.54904        1.31886        8.83388
H          1.11127        6.88836        7.95327
H          5.50623        5.44252        5.97671
H          1.85571        0.12698        8.37487
H          1.80460        5.69648        8.41228
O          8.36422        9.37013        4.31094
O         11.26681       10.20221        3.70277
C         12.04359        9.69427        4.53685
C         13.94102        9.46258        1.14728
N         12.65789       10.14095        1.34249
H         13.82643        8.51020        1.28973
H          9.71311        9.80900        1.78999
H         12.36398        9.98611        2.17082
H         12.06285        9.82014        0.75878
H         12.75618       11.01202        1.21779
O          9.89820        3.80063        2.88355
O         13.54873        1.76887        0.48539
O         12.01475        7.33837        1.91278
O         11.86461        4.63271        3.49173
O         10.64614        0.93679        1.09356
O         10.04833        6.50629        1.30460
C         11.08782        4.12477        2.65765
C          9.86935        1.44473        0.25948
C         10.82512        7.01423        2.13868
C         11.62245        3.89308        1.25088
C          7.97193        1.67642        3.64905
C         10.29049        7.24592        3.54545
N         12.90558        4.57145        1.05567
N          9.25505        0.99805        3.45384
N          9.00737        6.56755        3.74066
H         11.73705        2.94070        1.10843
H          8.08652        2.62880        3.50660
H         10.17590        8.19830        3.68790
H         10.98137        4.23950        0.60817
H         12.19984        1.33000        3.00634
H         10.93158        6.89950        4.18815
H         13.19949        4.41661        0.22735
H          9.54896        1.15289        2.62551
H          8.71346        6.72239        4.56898
H         13.50063        4.25064        1.63939
H          9.85010        1.31886        4.03755
H          8.41232        6.88836        3.15694
H         12.80729        5.44252        1.18038
H          9.15676        0.12698        3.57854
H          9.10566        5.69648        3.61595
O         13.23322        9.37013        4.31094
O         16.13581       10.20221        3.70277
C         16.91259        9.69427        4.53685
C         18.81002        9.46258        1.14728
N         17.52689       10.14095        1.34249
H         18.69543        8.51020        1.28973
H         14.58211        9.80900        1.78999
H         17.23298        9.98611        2.17082
H         16.93185        9.82014        0.75878
H         17.62518       11.01202        1.21779
O         14.76720        3.80063        2.88355
O         18.41773        1.76887        0.48539
O         16.88375        7.33837        1.91278
O         16.73361        4.63271        3.49173
O         15.51514        0.93679        1.09356
O         14.91733        6.50629        1.30460
C         15.95682        4.12477        2.65765
C         14.73835        1.44473        0.25948
C         15.69412        7.01423        2.13868
C         16.49145        3.89308        1.25088
C         12.84093        1.67642        3.64905
C         15.15949        7.24592        3.54545
N         17.77458        4.57145        1.05567
N         14.12405        0.99805        3.45384
N         13.87637        6.56755        3.74066
H         16.60605        2.94070        1.10843
H         12.95552        2.62880        3.50660
H         15.04490        8.19830        3.68790
H         15.85037        4.23950        0.60817
H         17.06884        1.33000        3.00634
H         15.80058        6.89950        4.18815
H         18.06849        4.41661        0.22735
H         14.41796        1.15289        2.62551
H         13.58246        6.72239        4.56898
H         18.36962        4.25064        1.63939
H         14.71910        1.31886        4.03755
H         13.28132        6.88836        3.15694
H         17.67629        5.44252        1.18038
H         14.02576        0.12698        3.57854
H         13.97466        5.69648        3.61595
O          5.93216        9.37013        9.10727
O          8.83475       10.20221        8.49909
C          9.61154        9.69427        9.33318
C         11.50896        9.46258        5.94361
N         10.22584       10.14095        6.13882
H         11.39437        8.51020        6.08606
H          7.28105        9.80900        6.58632
H          9.93193        9.98611        6.96715
H          9.63079        9.82014        5.55511
H         10.32413       11.01202        6.01412
O          7.46615        3.80063        7.67988
O         11.11667        1.76887        5.28172
O          9.58269        7.33837        6.70910
O          9.43256        4.63271        8.28806
O          8.21409        0.93679        5.88989
O          7.61628        6.50629        6.10093
C          8.65577        4.12477        7.45397
C          7.43730        1.44473        5.05581
C          8.39307        7.01423        6.93501
C          9.19040        3.89308        6.04721
C          5.53987        1.67642        8.44538
C          7.85844        7.24592        8.34177
N         10.47353        4.57145        5.85200
N          6.82300        0.99805        8.25016
N          6.57531        6.56755        8.53699
H          9.30499        2.94070        5.90476
H          5.65447        2.62880        8.30292
H          7.74385        8.19830        8.48423
H          8.54931        4.23950        5.40450
H          9.76778        1.33000        7.80267
H          8.49953        6.89950        8.98448
H         10.76743        4.41661        5.02367
H          7.11691        1.15289        7.42184
H          6.28140        6.72239        9.36531
H         11.06857        4.25064        6.43571
H          7.41804        1.31886        8.83388
H          5.98027        6.88836        7.95327
H         10.37523        5.44252        5.97671
H          6.72471        0.12698        8.37487
H          6.67360        5.69648        8.41228
O         10.80116        9.37013        9.10727
O         13.70375       10.20221        8.49909
C         14.48054        9.69427        9.33318
C         16.37796        9.46258        5.94361
N         15.09484       10.14095        6.13882
H         16.26337        8.51020        6.08606
H         12.15005        9.80900        6.58632
H         14.80093        9.98611        6.96715
H         14.49979        9.82014        5.55511
H         15.19313       11.01202        6.01412
O         12.33515        3.80063        7.67988
O         15.98567        1.76887        5.28172
O         14.45169        7.33837        6.70910
O         14.30156        4.63271        8.28806
O         13.08309        0.93679        5.88989
O         12.48528        6.50629        6.10093
C         13.52477        4.12477        7.45397
C         12.30630        1.44473        5.05581
C         13.26207        7.01423        6.93501
C         14.05940        3.89308        6.04721
C         10.40887        1.67642        8.44538
C         12.72744        7.24592        8.34177
N         15.34253        4.57145        5.85200
N         11.69200        0.99805        8.25016
N         11.44431        6.56755        8.53699
H         14.17399        2.94070        5.90476
H         10.52347        2.62880        8.30292
H         12.61284        8.19830        8.48423
H         13.41831        4.23950        5.40450
H         14.63678        1.33000        7.80267
H         13.36853        6.89950        8.98448
H         15.63643        4.41661        5.02367
H         11.98591        1.15289        7.42184
H         11.15040        6.72239        9.36531
H         15.93757        4.25064        6.43571
H         12.28704        1.31886        8.83388
H         10.84927        6.88836        7.95327
H         15.24423        5.44252        5.97671
H         11.59371        0.12698        8.37487
H         11.54260        5.69648        8.41228
