memory 750000 mb

molecule mol {
0 1
C         -0.56632       -1.79004        0.40669
O         -0.32100       -2.97037        0.49680
O         -1.78262       -1.31841        0.09460
C         -2.79967       -2.29767       -0.18708
H         -2.49726       -2.92789       -1.02402
H         -2.97969       -2.92140        0.68962
H         -3.68807       -1.72428       -0.44168
--
0 1
C         -1.14811        1.17238       -0.13345
O         -1.29212        1.16687       -1.32838
O         -2.11227        1.58364        0.72677
C         -3.37525        1.91728        0.12882
H         -3.26453        2.74764       -0.57053
H         -3.78000        1.05521       -0.40443
H         -4.02558        2.19658        0.95517
--
0 1
C          2.06118       -2.03239       -0.96737
H          2.99054       -1.90032       -1.52611
H          2.15103       -2.90365       -0.31831
H          1.25402       -2.21962       -1.67705
C          1.31577        2.73369       -0.68220
H          2.27987        2.99232       -1.12558
H          1.07733        3.48393        0.07758
H          0.55583        2.76206       -1.46173
C          0.10963        0.80645        0.63885
C          0.46432       -0.71766        0.71374
C          1.40111        1.36200       -0.04815
C          2.58556        1.18150        0.94929
C          2.93559       -0.31851        0.77196
C          1.79220       -0.78417       -0.16026
O          1.65586        0.34770       -1.03108
H         -0.00830        1.20976        1.64430
H          0.73897       -0.95221        1.74488
H          3.41708        1.82542        0.65862
H          2.30451        1.44513        1.97137
H          3.89100       -0.44306        0.25852
H          2.97559       -0.87902        1.70795

symmetry c1
no_reorient
no_com
}

set {
basis jun-cc-pvdz
scf_type df
guess sad
freeze_core true
}

energy('fisapt0')
