$molecule
0  1
C        +4.01529000        +3.25277000        +4.06467000
C        +4.41885000        +1.79436000        +4.47743000
C        +5.12267000        +3.60763000        +3.04381000
C        +6.42329000        +3.92489000        +3.80727000
C        +6.83595000        +2.50140000        +4.28172000
C        +5.73682000        +1.61490000        +3.63134000
O        +5.42099000        +2.34452000        +2.43496000
H        +7.16493000        +4.34571000        +3.12677000
H        +6.27495000        +4.63277000        +4.62523000
H        +7.81441000        +2.21783000        +3.89033000
H        +6.86618000        +2.39527000        +5.36800000
H        +4.82529000        +4.40732000        +2.39808000
H        +6.03598000        +0.59293000        +3.52658000
H        +4.60952000        +1.71884000        +5.52759000
H        +3.66735000        +1.05433000        +4.29715000
H        +3.04586000        +3.27600000        +3.61237000
H        +3.94811000        +3.93406000        +4.88700000
@C        +0.22270000        +1.04488000        +0.58595000
@C        +0.62626000        -0.41353000        +0.99871000
@C        +1.33008000        +1.39974000        -0.43491000
@C        +2.63070000        +1.71700000        +0.32855000
@C        +3.04336000        +0.29351000        +0.80300000
@C        +1.94423000        -0.59299000        +0.15262000
@O        +1.62840000        +0.13663000        -1.04376000
@H        +3.37234000        +2.13782000        -0.35195000
@H        +2.48236000        +2.42488000        +1.14651000
@H        +4.02182000        +0.00994000        +0.41161000
@H        +3.07359000        +0.18738000        +1.88928000
@H        +1.03270000        +2.19943000        -1.08064000
@H        +2.24339000        -1.61496000        +0.04786000
@H        +0.81693000        -0.48905000        +2.04887000
@H        -0.12524000        -1.15356000        +0.81843000
@H        -0.74673000        +1.06811000        +0.13365000
@H        +0.15552000        +1.72617000        +1.40828000
$end

$rem
JOBTYPE                   SP
METHOD                    B3LYP
DFT_D                     d3_op
BASIS                     6-311++G(d,p)
SYMMETRY                  False
THRESH                    12
SCF_CONVERGENCE           8
MAX_SUB_FILE_NUM          128
MEM_STATIC                400
MEM_TOTAL                 4000
$end
