$molecule
0  1
C        +0.20553000        +1.04146000        +0.58269000
C        +0.65000000        -0.38925000        +1.00740000
C        +1.32948000        +1.41743000        -0.40725000
C        +2.62919000        +1.72756000        +0.36622000
C        +3.06783000        +0.29650000        +0.79479000
C        +1.94651000        -0.57906000        +0.17708000
O        +1.63056000        +0.15702000        -1.03120000
H        +3.36767000        +2.18673000        -0.29348000
H        +2.46319000        +2.40269000        +1.20873000
H        +4.03298000        +0.02999000        +0.35944000
H        +3.13919000        +0.17160000        +1.87760000
H        +1.05575000        +2.14422000        -1.17046000
C        +2.32428000        -2.00466000        -0.15206000
H        +3.19961000        -2.02906000        -0.80581000
H        +1.50021000        -2.51513000        -0.65630000
H        +2.56254000        -2.55434000        +0.76296000
H        -0.76025000        +1.02051000        +0.07473000
H        +0.13481000        +1.74083000        +1.41846000
H        +0.82947000        -0.48542000        +2.08050000
H        -0.09122000        -1.13848000        +0.72072000
@C        +0.22122000        +2.27455000        +4.70206000
@C        +0.66569000        +0.84384000        +5.12677000
@C        +1.34517000        +2.65052000        +3.71212000
@C        +2.64488000        +2.96065000        +4.48559000
@C        +3.08352000        +1.52959000        +4.91416000
@C        +1.96220000        +0.65403000        +4.29645000
@O        +1.64625000        +1.39011000        +3.08817000
@H        +3.38336000        +3.41982000        +3.82589000
@H        +2.47888000        +3.63578000        +5.32810000
@H        +4.04867000        +1.26308000        +4.47881000
@H        +3.15488000        +1.40469000        +5.99697000
@H        +1.07144000        +3.37731000        +2.94891000
@C        +2.33997000        -0.77157000        +3.96731000
@H        +3.21530000        -0.79597000        +3.31356000
@H        +1.51590000        -1.28204000        +3.46307000
@H        +2.57823000        -1.32125000        +4.88233000
@H        -0.74456000        +2.25360000        +4.19410000
@H        +0.15050000        +2.97392000        +5.53783000
@H        +0.84516000        +0.74767000        +6.19987000
@H        -0.07553000        +0.09461000        +4.84009000
$end

$rem
JOBTYPE                   SP
METHOD                    B3LYP
DFT_D                     d3_op
BASIS                     6-311++G(d,p)
SYMMETRY                  False
THRESH                    12
SCF_CONVERGENCE           8
MAX_SUB_FILE_NUM          128
MEM_STATIC                400
MEM_TOTAL                 4000
$end
