$molecule
0  1
C        -0.58454000        -0.67556000        -0.07544000
C        -0.59851000        +0.70920000        +0.05808000
C        -1.77633000        -1.40990000        -0.13252000
C        -2.97828000        -0.70388000        -0.05611000
C        -2.99244000        +0.68477000        +0.07719000
C        -1.80513000        +1.41687000        +0.13452000
H        -3.94378000        +1.20441000        +0.13594000
H        -3.91864000        -1.24474000        -0.10022000
C        -1.81546000        +2.92210000        +0.24949000
C        -1.75732000        -2.91589000        -0.24640000
H        -1.03160000        -3.25185000        -0.99235000
H        -2.73712000        -3.30600000        -0.53105000
H        -1.48213000        -3.37940000        +0.70725000
H        -1.54006000        +3.39064000        -0.70147000
H        -1.10219000        +3.26991000        +1.00208000
H        -2.80465000        +3.29345000        +0.52612000
H        +0.36601000        -1.19708000        -0.13515000
H        +0.34176000        +1.25035000        +0.10232000
@C        -0.54564000        -1.08694000        +4.20466000
@C        -0.55961000        +0.29782000        +4.33818000
@C        -1.73743000        -1.82128000        +4.14758000
@C        -2.93938000        -1.11526000        +4.22399000
@C        -2.95354000        +0.27339000        +4.35729000
@C        -1.76623000        +1.00549000        +4.41462000
@H        -3.90488000        +0.79303000        +4.41604000
@H        -3.87974000        -1.65612000        +4.17988000
@C        -1.77656000        +2.51072000        +4.52959000
@C        -1.71842000        -3.32727000        +4.03370000
@H        -0.99270000        -3.66323000        +3.28775000
@H        -2.69822000        -3.71738000        +3.74905000
@H        -1.44323000        -3.79078000        +4.98735000
@H        -1.50116000        +2.97926000        +3.57863000
@H        -1.06329000        +2.85853000        +5.28218000
@H        -2.76575000        +2.88207000        +4.80622000
@H        +0.40491000        -1.60846000        +4.14495000
@H        +0.38066000        +0.83897000        +4.38242000
$end

$rem
JOBTYPE                   SP
METHOD                    B3LYP
DFT_D                     d3_op
BASIS                     6-311++G(d,p)
SYMMETRY                  False
THRESH                    12
SCF_CONVERGENCE           8
MAX_SUB_FILE_NUM          128
MEM_STATIC                400
MEM_TOTAL                 4000
$end
