memory 750000 mb

molecule mol {
0 1
H          1.52666       -2.16886        0.59716
--
0 1
C         -0.86951       -1.16992        0.07900
O         -1.47420       -0.65020        0.98172
O         -1.19978       -2.37483       -0.44211
C         -2.33135       -3.03281        0.15854
H         -2.15968       -3.19300        1.22391
H         -3.23326       -2.43298        0.02661
H         -2.42479       -3.98275       -0.36320
--
0 1
C          0.38210       -0.64786       -0.59285
C          0.62086        0.89410       -0.49056
C          1.63195       -1.16486        0.19116
C          2.91070       -0.90932       -0.64081
C          3.11783        0.62005       -0.41128
C          1.86846        0.95865        0.42635
O          1.73123       -0.21306        1.25093
H          0.38621       -0.99976       -1.62349
H          0.85193        1.27682       -1.48872
H          3.74316       -1.49065       -0.24231
H          2.78350       -1.17666       -1.69184
H          4.02267        0.81557        0.16582
H          3.17345        1.19245       -1.33938
H          1.91813        1.84445        1.05220
C         -0.54806        1.73208       -0.00254
O         -0.53292        2.48451        0.93629
O         -1.59855        1.58617       -0.83956
C         -2.81512        2.24508       -0.44389
H         -3.15673        1.84545        0.51218
H         -2.65869        3.32103       -0.35532
H         -3.53370        2.02569       -1.23085

symmetry c1
no_reorient
no_com
}

set {
basis jun-cc-pvdz
scf_type df
guess sad
freeze_core true
}

energy('fisapt0')
