memory 10000 mb

molecule mol {
0 1
C          0.40086        1.69675        0.23870
O          0.15995        2.87788        0.16169
O          1.59790        1.16806       -0.04662
C          2.60313        2.07863       -0.53208
H          2.23629        2.61141       -1.40940
H          2.87037        2.79588        0.24525
H          3.45527        1.45462       -0.79086
--
0 1
C          0.89125       -1.33345       -0.10267
O          1.16500       -1.56215       -1.25337
O          1.73377       -1.56104        0.92877
C          3.05985       -1.98433        0.57227
H          3.02732       -2.92198        0.01515
H          3.54743       -1.22242       -0.03815
H          3.58796       -2.11568        1.51418
--
0 1
H         -2.14392        1.99274       -0.25312
H         -1.40018       -1.84331       -1.34945
C         -0.45179       -0.85213        0.41528
C         -0.63210        0.68228        0.71724
C         -1.61260       -1.09344       -0.59315
C         -2.92732       -1.24928        0.19379
C         -3.13758        0.21284        0.69250
C         -1.97572        0.94628       -0.01731
O         -1.78644        0.18848       -1.21943
H         -0.62418       -1.40068        1.34327
H         -0.72314        0.85113        1.79343
H         -3.72976       -1.55937       -0.47727
H         -2.85784       -1.97899        1.00317
H         -4.09742        0.61546        0.36678
H         -3.08475        0.30738        1.77924

symmetry c1
no_reorient
no_com
}

set {
basis jun-cc-pvdz
scf_type df
guess sad
freeze_core true
}

energy('fisapt0')
