$molecule
0  1
--
0  1
C        +0.22270000        +1.04488000        +0.58595000
C        +0.62626000        -0.41353000        +0.99871000
C        +1.33008000        +1.39974000        -0.43491000
C        +2.63070000        +1.71700000        +0.32855000
C        +3.04336000        +0.29351000        +0.80300000
C        +1.94423000        -0.59299000        +0.15262000
O        +1.62840000        +0.13663000        -1.04376000
H        +3.37234000        +2.13782000        -0.35195000
H        +2.48236000        +2.42488000        +1.14651000
H        +4.02182000        +0.00994000        +0.41161000
H        +3.07359000        +0.18738000        +1.88928000
H        +1.03270000        +2.19943000        -1.08064000
H        +2.24339000        -1.61496000        +0.04786000
H        +0.81693000        -0.48905000        +2.04887000
H        -0.12524000        -1.15356000        +0.81843000
H        -0.74673000        +1.06811000        +0.13365000
H        +0.15552000        +1.72617000        +1.40828000
--
0  1
C        +2.86397000        +2.58252000        +3.00863000
C        +3.26753000        +1.12411000        +3.42139000
C        +3.97135000        +2.93738000        +1.98777000
C        +5.27197000        +3.25464000        +2.75123000
C        +5.68463000        +1.83115000        +3.22568000
C        +4.58550000        +0.94465000        +2.57530000
O        +4.26967000        +1.67427000        +1.37892000
H        +6.01361000        +3.67546000        +2.07073000
H        +5.12363000        +3.96252000        +3.56919000
H        +6.66309000        +1.54758000        +2.83429000
H        +5.71486000        +1.72502000        +4.31196000
H        +3.67397000        +3.73707000        +1.34204000
H        +4.88466000        -0.07732000        +2.47054000
H        +3.45820000        +1.04859000        +4.47155000
H        +2.51603000        +0.38408000        +3.24111000
H        +1.89454000        +2.60575000        +2.55633000
H        +2.79679000        +3.26381000        +3.83096000
$end

$rem
JOBTYPE                   SP
METHOD                    B3LYP
DFT_D                     d3_op
BASIS                     6-311++G(d,p)
SYMMETRY                  False
THRESH                    12
SCF_CONVERGENCE           8
MAX_SUB_FILE_NUM          128
MEM_STATIC                400
MEM_TOTAL                 4000
$end
