$molecule
0  1
C        +0.22270000        +1.04488000        +0.58595000
C        +0.62626000        -0.41353000        +0.99871000
C        +1.33008000        +1.39974000        -0.43491000
C        +2.63070000        +1.71700000        +0.32855000
C        +3.04336000        +0.29351000        +0.80300000
C        +1.94423000        -0.59299000        +0.15262000
O        +1.62840000        +0.13663000        -1.04376000
H        +3.37234000        +2.13782000        -0.35195000
H        +2.48236000        +2.42488000        +1.14651000
H        +4.02182000        +0.00994000        +0.41161000
H        +3.07359000        +0.18738000        +1.88928000
H        +1.03270000        +2.19943000        -1.08064000
H        +2.24339000        -1.61496000        +0.04786000
H        +0.81693000        -0.48905000        +2.04887000
H        -0.12524000        -1.15356000        +0.81843000
H        -0.74673000        +1.06811000        +0.13365000
H        +0.15552000        +1.72617000        +1.40828000
@C        +3.67666000        +3.05564000        +3.75407000
@C        +4.08022000        +1.59723000        +4.16683000
@C        +4.78404000        +3.41050000        +2.73321000
@C        +6.08466000        +3.72776000        +3.49667000
@C        +6.49732000        +2.30427000        +3.97112000
@C        +5.39819000        +1.41777000        +3.32074000
@O        +5.08236000        +2.14739000        +2.12436000
@H        +6.82630000        +4.14858000        +2.81617000
@H        +5.93632000        +4.43564000        +4.31463000
@H        +7.47578000        +2.02070000        +3.57973000
@H        +6.52755000        +2.19814000        +5.05740000
@H        +4.48666000        +4.21019000        +2.08748000
@H        +5.69735000        +0.39580000        +3.21598000
@H        +4.27089000        +1.52171000        +5.21699000
@H        +3.32872000        +0.85720000        +3.98655000
@H        +2.70723000        +3.07887000        +3.30177000
@H        +3.60948000        +3.73693000        +4.57640000
$end

$rem
JOBTYPE                   SP
METHOD                    B3LYP
DFT_D                     d3_op
BASIS                     6-311++G(d,p)
SYMMETRY                  False
THRESH                    12
SCF_CONVERGENCE           8
MAX_SUB_FILE_NUM          128
MEM_STATIC                400
MEM_TOTAL                 4000
$end
