$molecule
0  1
--
0  1
C        +0.22270000        +1.04488000        +0.58595000
C        +0.62626000        -0.41353000        +0.99871000
C        +1.33008000        +1.39974000        -0.43491000
C        +2.63070000        +1.71700000        +0.32855000
C        +3.04336000        +0.29351000        +0.80300000
C        +1.94423000        -0.59299000        +0.15262000
O        +1.62840000        +0.13663000        -1.04376000
H        +3.37234000        +2.13782000        -0.35195000
H        +2.48236000        +2.42488000        +1.14651000
H        +4.02182000        +0.00994000        +0.41161000
H        +3.07359000        +0.18738000        +1.88928000
H        +1.03270000        +2.19943000        -1.08064000
C        +2.35450000        -2.01267000        -0.16812000
H        +3.25743000        -2.00195000        -0.74215000
H        +1.57951000        -2.48932000        -0.73123000
H        +2.51687000        -2.55129000        +0.74206000
H        -0.74673000        +1.06811000        +0.13365000
H        +0.15552000        +1.72617000        +1.40828000
H        +0.81693000        -0.48905000        +2.04887000
H        -0.12524000        -1.15356000        +0.81843000
--
0  1
C        +7.45445000        +4.60936000        +6.50171000
C        +7.85801000        +3.15095000        +6.91447000
C        +8.56183000        +4.96422000        +5.48085000
C        +9.86245000        +5.28148000        +6.24431000
C       +10.27511000        +3.85799000        +6.71876000
C        +9.17598000        +2.97149000        +6.06838000
O        +8.86015000        +3.70111000        +4.87200000
H       +10.60409000        +5.70230000        +5.56381000
H        +9.71411000        +5.98936000        +7.06227000
H       +11.25357000        +3.57442000        +6.32737000
H       +10.30534000        +3.75186000        +7.80504000
H        +8.26445000        +5.76391000        +4.83512000
C        +9.58625000        +1.55181000        +5.74764000
H       +10.48918000        +1.56253000        +5.17361000
H        +8.81126000        +1.07516000        +5.18453000
H        +9.74862000        +1.01319000        +6.65782000
H        +6.48502000        +4.63259000        +6.04941000
H        +7.38727000        +5.29065000        +7.32404000
H        +8.04868000        +3.07543000        +7.96463000
H        +7.10651000        +2.41092000        +6.73419000
$end

$rem
JOBTYPE                   SP
METHOD                    B3LYP
DFT_D                     d3_op
BASIS                     6-311++G(d,p)
SYMMETRY                  False
THRESH                    12
SCF_CONVERGENCE           8
MAX_SUB_FILE_NUM          128
MEM_STATIC                400
MEM_TOTAL                 4000
$end
