$molecule
0  1
C        -0.67773000        -0.96254000        +3.82084000
C        -0.69038000        +0.43994000        +3.94266000
C        -1.87649000        -1.69500000        +3.76221000
C        -3.07281000        -0.97940000        +3.83488000
C        -3.08642000        +0.40371000        +3.95707000
C        -1.90490000        +1.14520000        +4.01583000
H        -4.03683000        +0.92441000        +4.00483000
H        -4.01221000        -1.52095000        +3.79785000
C        -1.97289000        +2.64862000        +4.13612000
H        -1.37543000        +3.14468000        +3.36708000
H        -1.58832000        +2.98543000        +5.10057000
H        -3.00540000        +2.98739000        +4.03411000
H        -1.87207000        -2.72277000        +3.66898000
H        +0.22496000        -1.46050000        +3.77387000
H        +0.20222000        +0.95665000        +3.97870000
@C        -0.54444000        -0.68370000        -0.06689000
@C        -0.55709000        +0.71878000        +0.05493000
@C        -1.74320000        -1.41616000        -0.12552000
@C        -2.93952000        -0.70056000        -0.05285000
@C        -2.95313000        +0.68255000        +0.06934000
@C        -1.77161000        +1.42404000        +0.12810000
@H        -3.90354000        +1.20325000        +0.11710000
@H        -3.87892000        -1.24211000        -0.08988000
@C        -1.83960000        +2.92746000        +0.24839000
@H        -1.24214000        +3.42352000        -0.52065000
@H        -1.45503000        +3.26427000        +1.21284000
@H        -2.87211000        +3.26623000        +0.14638000
@H        -1.73878000        -2.44393000        -0.21875000
@H        +0.35825000        -1.18166000        -0.11386000
@H        +0.33551000        +1.23549000        +0.09097000
$end

$rem
JOBTYPE                   SP
METHOD                    B3LYP
DFT_D                     d3_op
BASIS                     6-311++G(d,p)
SYMMETRY                  False
THRESH                    12
SCF_CONVERGENCE           8
MAX_SUB_FILE_NUM          128
MEM_STATIC                400
MEM_TOTAL                 4000
$end
