$molecule
0  1
--
0  1
C        -0.54444000        -0.68370000        -0.06689000
C        -0.55709000        +0.71878000        +0.05493000
C        -1.74320000        -1.41616000        -0.12552000
C        -2.93952000        -0.70056000        -0.05285000
C        -2.95313000        +0.68255000        +0.06934000
C        -1.77161000        +1.42404000        +0.12810000
H        -3.90354000        +1.20325000        +0.11710000
H        -3.87892000        -1.24211000        -0.08988000
C        -1.83960000        +2.92746000        +0.24839000
H        -1.24214000        +3.42352000        -0.52065000
H        -1.45503000        +3.26427000        +1.21284000
H        -2.87211000        +3.26623000        +0.14638000
H        -1.73878000        -2.44393000        -0.21875000
H        +0.35825000        -1.18166000        -0.11386000
H        +0.33551000        +1.23549000        +0.09097000
--
0  1
C        -0.51760000        -1.02375000        +3.81816000
C        -0.53025000        +0.37873000        +3.93998000
C        -1.71636000        -1.75621000        +3.75953000
C        -2.91268000        -1.04061000        +3.83220000
C        -2.92629000        +0.34250000        +3.95439000
C        -1.74477000        +1.08399000        +4.01315000
H        -3.87670000        +0.86320000        +4.00215000
H        -3.85208000        -1.58216000        +3.79517000
C        -1.81276000        +2.58741000        +4.13344000
H        -1.21530000        +3.08347000        +3.36440000
H        -1.42819000        +2.92422000        +5.09789000
H        -2.84527000        +2.92618000        +4.03143000
H        -1.71194000        -2.78398000        +3.66630000
H        +0.38509000        -1.52171000        +3.77119000
H        +0.36235000        +0.89544000        +3.97602000
$end

$rem
JOBTYPE                   SP
METHOD                    B3LYP
DFT_D                     d3_op
BASIS                     6-311++G(d,p)
SYMMETRY                  False
THRESH                    12
SCF_CONVERGENCE           8
MAX_SUB_FILE_NUM          128
MEM_STATIC                400
MEM_TOTAL                 4000
$end
