$molecule
0  1
C        -0.54444000        -0.68370000        -0.06689000
C        -0.55709000        +0.71878000        +0.05493000
C        -1.74320000        -1.41616000        -0.12552000
C        -2.93952000        -0.70056000        -0.05285000
C        -2.95313000        +0.68255000        +0.06934000
C        -1.77161000        +1.42404000        +0.12810000
H        -3.90354000        +1.20325000        +0.11710000
H        -3.87892000        -1.24211000        -0.08988000
C        -1.83960000        +2.92746000        +0.24839000
H        -1.24214000        +3.42352000        -0.52065000
H        -1.45503000        +3.26427000        +1.21284000
H        -2.87211000        +3.26623000        +0.14638000
H        -1.73878000        -2.44393000        -0.21875000
H        +0.35825000        -1.18166000        -0.11386000
H        +0.33551000        +1.23549000        +0.09097000
@C        -0.71875000        -1.04834000        +5.01707000
@C        -0.73140000        +0.35414000        +5.13889000
@C        -1.91751000        -1.78080000        +4.95844000
@C        -3.11383000        -1.06520000        +5.03111000
@C        -3.12744000        +0.31791000        +5.15330000
@C        -1.94592000        +1.05940000        +5.21206000
@H        -4.07785000        +0.83861000        +5.20106000
@H        -4.05323000        -1.60675000        +4.99408000
@C        -2.01391000        +2.56282000        +5.33235000
@H        -1.41645000        +3.05888000        +4.56331000
@H        -1.62934000        +2.89963000        +6.29680000
@H        -3.04642000        +2.90159000        +5.23034000
@H        -1.91309000        -2.80857000        +4.86521000
@H        +0.18394000        -1.54630000        +4.97010000
@H        +0.16120000        +0.87085000        +5.17493000
$end

$rem
JOBTYPE                   SP
METHOD                    B3LYP
DFT_D                     d3_op
BASIS                     6-311++G(d,p)
SYMMETRY                  False
THRESH                    12
SCF_CONVERGENCE           8
MAX_SUB_FILE_NUM          128
MEM_STATIC                400
MEM_TOTAL                 4000
$end
