$molecule
0  1
C        -1.73300000        -0.03945000        +3.59129000
C        -1.74565000        +1.36303000        +3.71311000
C        -2.93176000        -0.77191000        +3.53266000
C        -4.12808000        -0.05631000        +3.60533000
C        -4.14169000        +1.32680000        +3.72752000
C        -2.96017000        +2.06829000        +3.78628000
H        -5.09210000        +1.84750000        +3.77528000
H        -5.06748000        -0.59786000        +3.56830000
C        -3.02816000        +3.57171000        +3.90657000
C        -2.96959000        -2.27801000        +3.41228000
H        -2.58608000        -2.60798000        +2.44495000
H        -3.99428000        -2.63750000        +3.52191000
H        -2.35814000        -2.76352000        +4.17744000
H        -2.43070000        +4.06777000        +3.13753000
H        -2.64359000        +3.90852000        +4.87102000
H        -4.06067000        +3.91048000        +3.80456000
H        -0.83031000        -0.53741000        +3.54432000
H        -0.85305000        +1.87974000        +3.74915000
@C        -0.54444000        -0.68370000        -0.06689000
@C        -0.55709000        +0.71878000        +0.05493000
@C        -1.74320000        -1.41616000        -0.12552000
@C        -2.93952000        -0.70056000        -0.05285000
@C        -2.95313000        +0.68255000        +0.06934000
@C        -1.77161000        +1.42404000        +0.12810000
@H        -3.90354000        +1.20325000        +0.11710000
@H        -3.87892000        -1.24211000        -0.08988000
@C        -1.83960000        +2.92746000        +0.24839000
@C        -1.78103000        -2.92226000        -0.24590000
@H        -1.39752000        -3.25223000        -1.21323000
@H        -2.80572000        -3.28175000        -0.13627000
@H        -1.16958000        -3.40777000        +0.51926000
@H        -1.24214000        +3.42352000        -0.52065000
@H        -1.45503000        +3.26427000        +1.21284000
@H        -2.87211000        +3.26623000        +0.14638000
@H        +0.35825000        -1.18166000        -0.11386000
@H        +0.33551000        +1.23549000        +0.09097000
$end

$rem
JOBTYPE                   SP
METHOD                    B3LYP
DFT_D                     d3_op
BASIS                     6-311++G(d,p)
SYMMETRY                  False
THRESH                    12
SCF_CONVERGENCE           8
MAX_SUB_FILE_NUM          128
MEM_STATIC                400
MEM_TOTAL                 4000
$end
