$molecule
0 1
C         -1.95114        1.11942       -0.07333
C         -0.57642        0.86841        0.60035
C          0.25902        0.14709       -0.49798
C         -2.55504       -0.29519       -0.16268
H         -1.90275        1.64821       -1.05010
H         -2.57738        1.76304        0.57821
C         -1.48597       -1.16520        0.54923
H         -2.73691       -0.64256       -1.20329
H         -3.52718       -0.30325        0.37642
C         -0.27804       -1.29638       -0.42378
H         -0.52933       -1.72142       -1.41990
H          0.48232       -1.97198        0.01661
C         -0.93581       -0.22579        1.65298
H         -0.12077        1.82286        0.94076
C         -1.97901        0.22140        2.72967
H         -2.25837       -0.63951        3.37419
H         -2.93471        0.61690        2.34491
H         -1.53941        1.01038        3.37690
C          0.24832       -0.80025        2.48845
H          1.06456       -1.27451        1.93072
H         -0.11926       -1.60254        3.16376
H          0.69213        0.00170        3.11684
C         -2.03253       -2.52917        0.98764
H         -2.38675       -3.09930        0.10264
H         -2.88362       -2.39860        1.68835
H         -1.24227       -3.12031        1.49600
N          1.71090        0.25492       -0.32525
H          0.03868        0.60334       -1.49045
H          2.19314       -0.31663       -1.05550
H          2.05447       -0.02243        0.61351
$end

$rem
    BASIS                STO-3G
    EXCHANGE             HF
    JOBTYPE              SP
$end
