memory 750000 mb

molecule mol {
0 1
C          3.21173       -1.58756        0.18748
H          3.11565       -2.22848       -0.69038
H          2.96526       -2.21459        1.04621
H          4.25051       -1.26355        0.27556
--
0 1
C          0.23682       -1.78307       -0.07144
O          0.80387       -2.85160       -0.02158
O         -1.10553       -1.69654       -0.17947
C         -1.82703       -2.93588       -0.26102
H         -2.86734       -2.65355       -0.40732
H         -1.70802       -3.50704        0.66122
H         -1.46982       -3.53099       -1.10214
--
0 1
C         -0.04267        3.27951       -0.18928
H         -0.80730        3.33033        0.59133
H         -0.55603        3.33728       -1.15274
H          0.59875        4.15632       -0.09009
C         -1.34499        0.77476       -0.28278
O         -1.91200        0.87864       -1.34136
O         -1.96720        0.79415        0.91201
C         -3.40514        0.82382        0.86832
H         -3.75713        1.71250        0.34215
H         -3.72708        0.83869        1.90724
H         -3.78435       -0.06548        0.36178
C          0.90114       -0.44258       -0.02801
C          0.15263        0.75062       -0.11404
C          2.31053       -0.37923        0.09634
C          2.90211        0.88499        0.13631
C          2.15416        2.05120        0.05067
C          0.76738        2.00921       -0.08102
H          2.65523        3.01281        0.08588
H          3.97960        0.95241        0.23649

symmetry c1
no_reorient
no_com
}

set {
basis jun-cc-pvdz
scf_type df
guess sad
freeze_core true
}

energy('fisapt0')
