$molecule
0  1
C        +0.23211000        +1.94430000        +3.45400000
C        +0.66792000        +0.51272000        +3.89779000
C        +1.35475000        +2.30006000        +2.45499000
C        +2.65997000        +2.61296000        +3.21928000
C        +3.09817000        +1.18210000        +3.66297000
C        +1.95852000        +0.32510000        +3.06997000
O        +1.64688000        +1.02508000        +1.84862000
H        +3.39744000        +3.06470000        +2.55358000
H        +2.49878000        +3.29415000        +4.05767000
H        +4.05622000        +0.90644000        +3.21940000
H        +3.18113000        +1.07330000        +4.74665000
H        +1.08305000        +3.01474000        +1.68017000
H        +2.21993000        -0.70575000        +2.83799000
H        +0.84511000        +0.43004000        +4.97232000
H        -0.07785000        -0.23368000        +3.61863000
H        -0.73649000        +1.92508000        +2.95166000
H        +0.17216000        +2.65294000        +4.28261000
@C        +0.20238000        +1.04766000        +0.59128000
@C        +0.63819000        -0.38392000        +1.03507000
@C        +1.32502000        +1.40342000        -0.40773000
@C        +2.63024000        +1.71632000        +0.35656000
@C        +3.06844000        +0.28546000        +0.80025000
@C        +1.92879000        -0.57154000        +0.20725000
@O        +1.61715000        +0.12844000        -1.01410000
@H        +3.36771000        +2.16806000        -0.30914000
@H        +2.46905000        +2.39751000        +1.19495000
@H        +4.02649000        +0.00980000        +0.35668000
@H        +3.15140000        +0.17666000        +1.88393000
@H        +1.05332000        +2.11810000        -1.18255000
@H        +2.19020000        -1.60239000        -0.02473000
@H        +0.81538000        -0.46660000        +2.10960000
@H        -0.10758000        -1.13032000        +0.75591000
@H        -0.76622000        +1.02844000        +0.08894000
@H        +0.14243000        +1.75630000        +1.41989000
$end

$rem
JOBTYPE                   SP
METHOD                    B3LYP
DFT_D                     d3_op
BASIS                     6-311++G(d,p)
SYMMETRY                  False
THRESH                    12
SCF_CONVERGENCE           8
MAX_SUB_FILE_NUM          128
MEM_STATIC                400
MEM_TOTAL                 4000
$end
