$molecule
0  1
C        +0.22270000        +1.04488000        +0.58595000
C        +0.62626000        -0.41353000        +0.99871000
C        +1.33008000        +1.39974000        -0.43491000
C        +2.63070000        +1.71700000        +0.32855000
C        +3.04336000        +0.29351000        +0.80300000
C        +1.94423000        -0.59299000        +0.15262000
O        +1.62840000        +0.13663000        -1.04376000
H        +3.37234000        +2.13782000        -0.35195000
H        +2.48236000        +2.42488000        +1.14651000
H        +4.02182000        +0.00994000        +0.41161000
H        +3.07359000        +0.18738000        +1.88928000
H        +1.03270000        +2.19943000        -1.08064000
H        +2.24339000        -1.61496000        +0.04786000
H        +0.81693000        -0.48905000        +2.04887000
H        -0.12524000        -1.15356000        +0.81843000
H        -0.74673000        +1.06811000        +0.13365000
H        +0.15552000        +1.72617000        +1.40828000
@C        +4.62481000        +3.60761000        +4.62375000
@C        +5.02837000        +2.14920000        +5.03651000
@C        +5.73219000        +3.96247000        +3.60289000
@C        +7.03281000        +4.27973000        +4.36635000
@C        +7.44547000        +2.85624000        +4.84080000
@C        +6.34634000        +1.96974000        +4.19042000
@O        +6.03051000        +2.69936000        +2.99404000
@H        +7.77445000        +4.70055000        +3.68585000
@H        +6.88447000        +4.98761000        +5.18431000
@H        +8.42393000        +2.57267000        +4.44941000
@H        +7.47570000        +2.75011000        +5.92708000
@H        +5.43481000        +4.76216000        +2.95716000
@H        +6.64550000        +0.94777000        +4.08566000
@H        +5.21904000        +2.07368000        +6.08667000
@H        +4.27687000        +1.40917000        +4.85623000
@H        +3.65538000        +3.63084000        +4.17145000
@H        +4.55763000        +4.28890000        +5.44608000
$end

$rem
JOBTYPE                   SP
METHOD                    B3LYP
DFT_D                     d3_op
BASIS                     6-311++G(d,p)
SYMMETRY                  False
THRESH                    12
SCF_CONVERGENCE           8
MAX_SUB_FILE_NUM          128
MEM_STATIC                400
MEM_TOTAL                 4000
$end
