$molecule
0  1
--
0  1
C        +0.22270000        +1.04488000        +0.58595000
C        +0.62626000        -0.41353000        +0.99871000
C        +1.33008000        +1.39974000        -0.43491000
C        +2.63070000        +1.71700000        +0.32855000
C        +3.04336000        +0.29351000        +0.80300000
C        +1.94423000        -0.59299000        +0.15262000
O        +1.62840000        +0.13663000        -1.04376000
H        +3.37234000        +2.13782000        -0.35195000
H        +2.48236000        +2.42488000        +1.14651000
H        +4.02182000        +0.00994000        +0.41161000
H        +3.07359000        +0.18738000        +1.88928000
H        +1.03270000        +2.19943000        -1.08064000
H        +2.24339000        -1.61496000        +0.04786000
H        +0.81693000        -0.48905000        +2.04887000
H        -0.12524000        -1.15356000        +0.81843000
H        -0.74673000        +1.06811000        +0.13365000
H        +0.15552000        +1.72617000        +1.40828000
--
0  1
C        +3.47349000        +2.93736000        +3.56771000
C        +3.87705000        +1.47895000        +3.98047000
C        +4.58087000        +3.29222000        +2.54685000
C        +5.88149000        +3.60948000        +3.31031000
C        +6.29415000        +2.18599000        +3.78476000
C        +5.19502000        +1.29949000        +3.13438000
O        +4.87919000        +2.02911000        +1.93800000
H        +6.62313000        +4.03030000        +2.62981000
H        +5.73315000        +4.31736000        +4.12827000
H        +7.27261000        +1.90242000        +3.39337000
H        +6.32438000        +2.07986000        +4.87104000
H        +4.28349000        +4.09191000        +1.90112000
H        +5.49418000        +0.27752000        +3.02962000
H        +4.06772000        +1.40343000        +5.03063000
H        +3.12555000        +0.73892000        +3.80019000
H        +2.50406000        +2.96059000        +3.11541000
H        +3.40631000        +3.61865000        +4.39004000
$end

$rem
JOBTYPE                   SP
METHOD                    B3LYP
DFT_D                     d3_op
BASIS                     6-311++G(d,p)
SYMMETRY                  False
THRESH                    12
SCF_CONVERGENCE           8
MAX_SUB_FILE_NUM          128
MEM_STATIC                400
MEM_TOTAL                 4000
$end
