$molecule
0  1
C        +0.21647000        +1.90176000        +3.45667000
C        +0.66094000        +0.47105000        +3.88138000
C        +1.34042000        +2.27773000        +2.46673000
C        +2.64013000        +2.58786000        +3.24020000
C        +3.07877000        +1.15680000        +3.66877000
C        +1.95745000        +0.28124000        +3.05106000
O        +1.64150000        +1.01732000        +1.84278000
H        +3.37861000        +3.04703000        +2.58050000
H        +2.47413000        +3.26299000        +4.08271000
H        +4.04392000        +0.89029000        +3.23342000
H        +3.15013000        +1.03190000        +4.75158000
H        +1.06669000        +3.00452000        +1.70352000
C        +2.33522000        -1.14436000        +2.72192000
H        +3.21055000        -1.16876000        +2.06817000
H        +1.51115000        -1.65483000        +2.21768000
H        +2.57348000        -1.69404000        +3.63694000
H        -0.74931000        +1.88081000        +2.94871000
H        +0.14575000        +2.60113000        +4.29244000
H        +0.84041000        +0.37488000        +4.95448000
H        -0.08028000        -0.27818000        +3.59470000
@C        +0.20553000        +1.04146000        +0.58269000
@C        +0.65000000        -0.38925000        +1.00740000
@C        +1.32948000        +1.41743000        -0.40725000
@C        +2.62919000        +1.72756000        +0.36622000
@C        +3.06783000        +0.29650000        +0.79479000
@C        +1.94651000        -0.57906000        +0.17708000
@O        +1.63056000        +0.15702000        -1.03120000
@H        +3.36767000        +2.18673000        -0.29348000
@H        +2.46319000        +2.40269000        +1.20873000
@H        +4.03298000        +0.02999000        +0.35944000
@H        +3.13919000        +0.17160000        +1.87760000
@H        +1.05575000        +2.14422000        -1.17046000
@C        +2.32428000        -2.00466000        -0.15206000
@H        +3.19961000        -2.02906000        -0.80581000
@H        +1.50021000        -2.51513000        -0.65630000
@H        +2.56254000        -2.55434000        +0.76296000
@H        -0.76025000        +1.02051000        +0.07473000
@H        +0.13481000        +1.74083000        +1.41846000
@H        +0.82947000        -0.48542000        +2.08050000
@H        -0.09122000        -1.13848000        +0.72072000
$end

$rem
JOBTYPE                   SP
METHOD                    B3LYP
DFT_D                     d3_op
BASIS                     6-311++G(d,p)
SYMMETRY                  False
THRESH                    12
SCF_CONVERGENCE           8
MAX_SUB_FILE_NUM          128
MEM_STATIC                400
MEM_TOTAL                 4000
$end
