$molecule
0  1
C        +0.22270000        +1.04488000        +0.58595000
C        +0.62626000        -0.41353000        +0.99871000
C        +1.33008000        +1.39974000        -0.43491000
C        +2.63070000        +1.71700000        +0.32855000
C        +3.04336000        +0.29351000        +0.80300000
C        +1.94423000        -0.59299000        +0.15262000
O        +1.62840000        +0.13663000        -1.04376000
H        +3.37234000        +2.13782000        -0.35195000
H        +2.48236000        +2.42488000        +1.14651000
H        +4.02182000        +0.00994000        +0.41161000
H        +3.07359000        +0.18738000        +1.88928000
H        +1.03270000        +2.19943000        -1.08064000
C        +2.35450000        -2.01267000        -0.16812000
H        +3.25743000        -2.00195000        -0.74215000
H        +1.57951000        -2.48932000        -0.73123000
H        +2.51687000        -2.55129000        +0.74206000
H        -0.74673000        +1.06811000        +0.13365000
H        +0.15552000        +1.72617000        +1.40828000
H        +0.81693000        -0.48905000        +2.04887000
H        -0.12524000        -1.15356000        +0.81843000
@C        +4.92334000        +3.36179000        +4.43120000
@C        +5.32690000        +1.90338000        +4.84396000
@C        +6.03072000        +3.71665000        +3.41034000
@C        +7.33134000        +4.03391000        +4.17380000
@C        +7.74400000        +2.61042000        +4.64825000
@C        +6.64487000        +1.72392000        +3.99787000
@O        +6.32904000        +2.45354000        +2.80149000
@H        +8.07298000        +4.45473000        +3.49330000
@H        +7.18300000        +4.74179000        +4.99176000
@H        +8.72246000        +2.32685000        +4.25686000
@H        +7.77423000        +2.50429000        +5.73453000
@H        +5.73334000        +4.51634000        +2.76461000
@C        +7.05514000        +0.30424000        +3.67713000
@H        +7.95807000        +0.31496000        +3.10310000
@H        +6.28015000        -0.17241000        +3.11402000
@H        +7.21751000        -0.23438000        +4.58731000
@H        +3.95391000        +3.38502000        +3.97890000
@H        +4.85616000        +4.04308000        +5.25353000
@H        +5.51757000        +1.82786000        +5.89412000
@H        +4.57540000        +1.16335000        +4.66368000
$end

$rem
JOBTYPE                   SP
METHOD                    B3LYP
DFT_D                     d3_op
BASIS                     6-311++G(d,p)
SYMMETRY                  False
THRESH                    12
SCF_CONVERGENCE           8
MAX_SUB_FILE_NUM          128
MEM_STATIC                400
MEM_TOTAL                 4000
$end
