$molecule
0  1
C        -0.57321000        -0.92433000        +2.93902000
C        -0.60355000        +0.46274000        +3.06000000
C        -1.76402000        -1.64894000        +2.86753000
C        -2.98086000        -0.97342000        +2.91883000
C        -3.00546000        +0.41644000        +3.03990000
C        -1.82082000        +1.15504000        +3.11059000
H        -3.95855000        +0.93407000        +3.07899000
H        -3.91271000        -1.52579000        +2.86409000
C        -1.84547000        +2.65973000        +3.23606000
H        -1.32110000        +3.13375000        +2.40053000
H        -1.35407000        +2.98842000        +4.15701000
H        -2.86878000        +3.04014000        +3.24806000
H        -1.74202000        -2.72877000        +2.77237000
H        +0.37903000        -1.44200000        +2.90016000
H        +0.32834000        +1.01703000        +3.11505000
@C        -0.55335000        -0.66344000        -0.04955000
@C        -0.58369000        +0.72363000        +0.07143000
@C        -1.74416000        -1.38805000        -0.12104000
@C        -2.96100000        -0.71253000        -0.06974000
@C        -2.98560000        +0.67733000        +0.05133000
@C        -1.80096000        +1.41593000        +0.12202000
@H        -3.93869000        +1.19496000        +0.09042000
@H        -3.89285000        -1.26490000        -0.12448000
@C        -1.82561000        +2.92062000        +0.24749000
@H        -1.30124000        +3.39464000        -0.58804000
@H        -1.33421000        +3.24931000        +1.16844000
@H        -2.84892000        +3.30103000        +0.25949000
@H        -1.72216000        -2.46788000        -0.21620000
@H        +0.39889000        -1.18111000        -0.08841000
@H        +0.34820000        +1.27792000        +0.12648000
$end

$rem
JOBTYPE                   SP
METHOD                    B3LYP
DFT_D                     d3_op
BASIS                     6-311++G(d,p)
SYMMETRY                  False
THRESH                    12
SCF_CONVERGENCE           8
MAX_SUB_FILE_NUM          128
MEM_STATIC                400
MEM_TOTAL                 4000
$end
