$molecule
0  1
--
0  1
C        -0.54444000        -0.68370000        -0.06689000
C        -0.55709000        +0.71878000        +0.05493000
C        -1.74320000        -1.41616000        -0.12552000
C        -2.93952000        -0.70056000        -0.05285000
C        -2.95313000        +0.68255000        +0.06934000
C        -1.77161000        +1.42404000        +0.12810000
H        -3.90354000        +1.20325000        +0.11710000
H        -3.87892000        -1.24211000        -0.08988000
C        -1.83960000        +2.92746000        +0.24839000
H        -1.24214000        +3.42352000        -0.52065000
H        -1.45503000        +3.26427000        +1.21284000
H        -2.87211000        +3.26623000        +0.14638000
H        -1.73878000        -2.44393000        -0.21875000
H        +0.35825000        -1.18166000        -0.11386000
H        +0.33551000        +1.23549000        +0.09097000
--
0  1
C        -0.76659000        -1.14844000        +6.41267000
C        -0.77924000        +0.25404000        +6.53449000
C        -1.96535000        -1.88090000        +6.35404000
C        -3.16167000        -1.16530000        +6.42671000
C        -3.17528000        +0.21781000        +6.54890000
C        -1.99376000        +0.95930000        +6.60766000
H        -4.12569000        +0.73851000        +6.59666000
H        -4.10107000        -1.70685000        +6.38968000
C        -2.06175000        +2.46272000        +6.72795000
H        -1.46429000        +2.95878000        +5.95891000
H        -1.67718000        +2.79953000        +7.69240000
H        -3.09426000        +2.80149000        +6.62594000
H        -1.96093000        -2.90867000        +6.26081000
H        +0.13610000        -1.64640000        +6.36570000
H        +0.11336000        +0.77075000        +6.57053000
$end

$rem
JOBTYPE                   SP
METHOD                    B3LYP
DFT_D                     d3_op
BASIS                     6-311++G(d,p)
SYMMETRY                  False
THRESH                    12
SCF_CONVERGENCE           8
MAX_SUB_FILE_NUM          128
MEM_STATIC                400
MEM_TOTAL                 4000
$end
