$molecule
0  1
C        -0.52380000        -0.94527000        +2.92161000
C        -0.53645000        +0.45721000        +3.04343000
C        -1.72256000        -1.67773000        +2.86298000
C        -2.91888000        -0.96213000        +2.93565000
C        -2.93249000        +0.42098000        +3.05784000
C        -1.75097000        +1.16247000        +3.11660000
H        -3.88290000        +0.94168000        +3.10560000
H        -3.85828000        -1.50368000        +2.89862000
C        -1.81896000        +2.66589000        +3.23689000
H        -1.22150000        +3.16195000        +2.46785000
H        -1.43439000        +3.00270000        +4.20134000
H        -2.85147000        +3.00466000        +3.13488000
H        -1.71814000        -2.70550000        +2.76975000
H        +0.37889000        -1.44323000        +2.87464000
H        +0.35615000        +0.97392000        +3.07947000
@C        -0.54444000        -0.68370000        -0.06689000
@C        -0.55709000        +0.71878000        +0.05493000
@C        -1.74320000        -1.41616000        -0.12552000
@C        -2.93952000        -0.70056000        -0.05285000
@C        -2.95313000        +0.68255000        +0.06934000
@C        -1.77161000        +1.42404000        +0.12810000
@H        -3.90354000        +1.20325000        +0.11710000
@H        -3.87892000        -1.24211000        -0.08988000
@C        -1.83960000        +2.92746000        +0.24839000
@H        -1.24214000        +3.42352000        -0.52065000
@H        -1.45503000        +3.26427000        +1.21284000
@H        -2.87211000        +3.26623000        +0.14638000
@H        -1.73878000        -2.44393000        -0.21875000
@H        +0.35825000        -1.18166000        -0.11386000
@H        +0.33551000        +1.23549000        +0.09097000
$end

$rem
JOBTYPE                   SP
METHOD                    B3LYP
DFT_D                     d3_op
BASIS                     6-311++G(d,p)
SYMMETRY                  False
THRESH                    12
SCF_CONVERGENCE           8
MAX_SUB_FILE_NUM          128
MEM_STATIC                400
MEM_TOTAL                 4000
$end
