$molecule
0  1
C        -0.54444000        -0.68370000        -0.06689000
C        -0.55709000        +0.71878000        +0.05493000
C        -1.74320000        -1.41616000        -0.12552000
C        -2.93952000        -0.70056000        -0.05285000
C        -2.95313000        +0.68255000        +0.06934000
C        -1.77161000        +1.42404000        +0.12810000
H        -3.90354000        +1.20325000        +0.11710000
H        -3.87892000        -1.24211000        -0.08988000
C        -1.83960000        +2.92746000        +0.24839000
H        -1.24214000        +3.42352000        -0.52065000
H        -1.45503000        +3.26427000        +1.21284000
H        -2.87211000        +3.26623000        +0.14638000
H        -1.73878000        -2.44393000        -0.21875000
H        +0.35825000        -1.18166000        -0.11386000
H        +0.33551000        +1.23549000        +0.09097000
@C        -0.64697000        -0.89819000        +2.92368000
@C        -0.65962000        +0.50429000        +3.04550000
@C        -1.84573000        -1.63065000        +2.86505000
@C        -3.04205000        -0.91505000        +2.93772000
@C        -3.05566000        +0.46806000        +3.05991000
@C        -1.87414000        +1.20955000        +3.11867000
@H        -4.00607000        +0.98876000        +3.10767000
@H        -3.98145000        -1.45660000        +2.90069000
@C        -1.94213000        +2.71297000        +3.23896000
@H        -1.34467000        +3.20903000        +2.46992000
@H        -1.55756000        +3.04978000        +4.20341000
@H        -2.97464000        +3.05174000        +3.13695000
@H        -1.84131000        -2.65842000        +2.77182000
@H        +0.25572000        -1.39615000        +2.87671000
@H        +0.23298000        +1.02100000        +3.08154000
$end

$rem
JOBTYPE                   SP
METHOD                    B3LYP
DFT_D                     d3_op
BASIS                     6-311++G(d,p)
SYMMETRY                  False
THRESH                    12
SCF_CONVERGENCE           8
MAX_SUB_FILE_NUM          128
MEM_STATIC                400
MEM_TOTAL                 4000
$end
