$molecule
0  1
C        -2.00728000        +0.10922000        +4.43548000
C        -2.01993000        +1.51170000        +4.55730000
C        -3.20604000        -0.62324000        +4.37685000
C        -4.40236000        +0.09236000        +4.44952000
C        -4.41597000        +1.47547000        +4.57171000
C        -3.23445000        +2.21696000        +4.63047000
H        -5.36638000        +1.99617000        +4.61947000
H        -5.34176000        -0.44919000        +4.41249000
C        -3.30244000        +3.72038000        +4.75076000
C        -3.24387000        -2.12934000        +4.25647000
H        -2.86036000        -2.45931000        +3.28914000
H        -4.26856000        -2.48883000        +4.36610000
H        -2.63242000        -2.61485000        +5.02163000
H        -2.70498000        +4.21644000        +3.98172000
H        -2.91787000        +4.05719000        +5.71521000
H        -4.33495000        +4.05915000        +4.64875000
H        -1.10459000        -0.38874000        +4.38851000
H        -1.12733000        +2.02841000        +4.59334000
@C        -0.54444000        -0.68370000        -0.06689000
@C        -0.55709000        +0.71878000        +0.05493000
@C        -1.74320000        -1.41616000        -0.12552000
@C        -2.93952000        -0.70056000        -0.05285000
@C        -2.95313000        +0.68255000        +0.06934000
@C        -1.77161000        +1.42404000        +0.12810000
@H        -3.90354000        +1.20325000        +0.11710000
@H        -3.87892000        -1.24211000        -0.08988000
@C        -1.83960000        +2.92746000        +0.24839000
@C        -1.78103000        -2.92226000        -0.24590000
@H        -1.39752000        -3.25223000        -1.21323000
@H        -2.80572000        -3.28175000        -0.13627000
@H        -1.16958000        -3.40777000        +0.51926000
@H        -1.24214000        +3.42352000        -0.52065000
@H        -1.45503000        +3.26427000        +1.21284000
@H        -2.87211000        +3.26623000        +0.14638000
@H        +0.35825000        -1.18166000        -0.11386000
@H        +0.33551000        +1.23549000        +0.09097000
$end

$rem
JOBTYPE                   SP
METHOD                    B3LYP
DFT_D                     d3_op
BASIS                     6-311++G(d,p)
SYMMETRY                  False
THRESH                    12
SCF_CONVERGENCE           8
MAX_SUB_FILE_NUM          128
MEM_STATIC                400
MEM_TOTAL                 4000
$end
