$molecule
0  1
--
0  1
C        -0.58454000        -0.67556000        -0.07544000
C        -0.59851000        +0.70920000        +0.05808000
C        -1.77633000        -1.40990000        -0.13252000
C        -2.97828000        -0.70388000        -0.05611000
C        -2.99244000        +0.68477000        +0.07719000
C        -1.80513000        +1.41687000        +0.13452000
H        -3.94378000        +1.20441000        +0.13594000
H        -3.91864000        -1.24474000        -0.10022000
C        -1.81546000        +2.92210000        +0.24949000
C        -1.75732000        -2.91589000        -0.24640000
H        -1.03160000        -3.25185000        -0.99235000
H        -2.73712000        -3.30600000        -0.53105000
H        -1.48213000        -3.37940000        +0.70725000
H        -1.54006000        +3.39064000        -0.70147000
H        -1.10219000        +3.26991000        +1.00208000
H        -2.80465000        +3.29345000        +0.52612000
H        +0.36601000        -1.19708000        -0.13515000
H        +0.34176000        +1.25035000        +0.10232000
--
0  1
C        -0.55740000        -0.96257000        +2.91068000
C        -0.57137000        +0.42219000        +3.04420000
C        -1.74919000        -1.69691000        +2.85360000
C        -2.95114000        -0.99089000        +2.93001000
C        -2.96530000        +0.39776000        +3.06331000
C        -1.77799000        +1.12986000        +3.12064000
H        -3.91664000        +0.91740000        +3.12206000
H        -3.89150000        -1.53175000        +2.88590000
C        -1.78832000        +2.63509000        +3.23561000
C        -1.73018000        -3.20290000        +2.73972000
H        -1.00446000        -3.53886000        +1.99377000
H        -2.70998000        -3.59301000        +2.45507000
H        -1.45499000        -3.66641000        +3.69337000
H        -1.51292000        +3.10363000        +2.28465000
H        -1.07505000        +2.98290000        +3.98820000
H        -2.77751000        +3.00644000        +3.51224000
H        +0.39315000        -1.48409000        +2.85097000
H        +0.36890000        +0.96334000        +3.08844000
$end

$rem
JOBTYPE                   SP
METHOD                    B3LYP
DFT_D                     d3_op
BASIS                     6-311++G(d,p)
SYMMETRY                  False
THRESH                    12
SCF_CONVERGENCE           8
MAX_SUB_FILE_NUM          128
MEM_STATIC                400
MEM_TOTAL                 4000
$end
