$molecule
0  1
C        -1.45872000        -0.18813000        +2.74709000
C        -1.47137000        +1.21435000        +2.86891000
C        -2.65748000        -0.92059000        +2.68846000
C        -3.85380000        -0.20499000        +2.76113000
C        -3.86741000        +1.17812000        +2.88332000
C        -2.68589000        +1.91961000        +2.94208000
H        -4.81782000        +1.69882000        +2.93108000
H        -4.79320000        -0.74654000        +2.72410000
C        -2.75388000        +3.42303000        +3.06237000
C        -2.69531000        -2.42669000        +2.56808000
H        -2.31180000        -2.75666000        +1.60075000
H        -3.72000000        -2.78618000        +2.67771000
H        -2.08386000        -2.91220000        +3.33324000
H        -2.15642000        +3.91909000        +2.29333000
H        -2.36931000        +3.75984000        +4.02682000
H        -3.78639000        +3.76180000        +2.96036000
H        -0.55603000        -0.68609000        +2.70012000
H        -0.57877000        +1.73106000        +2.90495000
@C        -0.54444000        -0.68370000        -0.06689000
@C        -0.55709000        +0.71878000        +0.05493000
@C        -1.74320000        -1.41616000        -0.12552000
@C        -2.93952000        -0.70056000        -0.05285000
@C        -2.95313000        +0.68255000        +0.06934000
@C        -1.77161000        +1.42404000        +0.12810000
@H        -3.90354000        +1.20325000        +0.11710000
@H        -3.87892000        -1.24211000        -0.08988000
@C        -1.83960000        +2.92746000        +0.24839000
@C        -1.78103000        -2.92226000        -0.24590000
@H        -1.39752000        -3.25223000        -1.21323000
@H        -2.80572000        -3.28175000        -0.13627000
@H        -1.16958000        -3.40777000        +0.51926000
@H        -1.24214000        +3.42352000        -0.52065000
@H        -1.45503000        +3.26427000        +1.21284000
@H        -2.87211000        +3.26623000        +0.14638000
@H        +0.35825000        -1.18166000        -0.11386000
@H        +0.33551000        +1.23549000        +0.09097000
$end

$rem
JOBTYPE                   SP
METHOD                    B3LYP
DFT_D                     d3_op
BASIS                     6-311++G(d,p)
SYMMETRY                  False
THRESH                    12
SCF_CONVERGENCE           8
MAX_SUB_FILE_NUM          128
MEM_STATIC                400
MEM_TOTAL                 4000
$end
