$molecule
0  1
C        +0.20238000        +1.04766000        +0.59128000
C        +0.63819000        -0.38392000        +1.03507000
C        +1.32502000        +1.40342000        -0.40773000
C        +2.63024000        +1.71632000        +0.35656000
C        +3.06844000        +0.28546000        +0.80025000
C        +1.92879000        -0.57154000        +0.20725000
O        +1.61715000        +0.12844000        -1.01410000
H        +3.36771000        +2.16806000        -0.30914000
H        +2.46905000        +2.39751000        +1.19495000
H        +4.02649000        +0.00980000        +0.35668000
H        +3.15140000        +0.17666000        +1.88393000
H        +1.05332000        +2.11810000        -1.18255000
H        +2.19020000        -1.60239000        -0.02473000
H        +0.81538000        -0.46660000        +2.10960000
H        -0.10758000        -1.13032000        +0.75591000
H        -0.76622000        +1.02844000        +0.08894000
H        +0.14243000        +1.75630000        +1.41989000
@C        +0.24301000        +2.27307000        +4.50366000
@C        +0.67882000        +0.84149000        +4.94745000
@C        +1.36565000        +2.62883000        +3.50465000
@C        +2.67087000        +2.94173000        +4.26894000
@C        +3.10907000        +1.51087000        +4.71263000
@C        +1.96942000        +0.65387000        +4.11963000
@O        +1.65778000        +1.35385000        +2.89828000
@H        +3.40834000        +3.39347000        +3.60324000
@H        +2.50968000        +3.62292000        +5.10733000
@H        +4.06712000        +1.23521000        +4.26906000
@H        +3.19203000        +1.40207000        +5.79631000
@H        +1.09395000        +3.34351000        +2.72983000
@H        +2.23083000        -0.37698000        +3.88765000
@H        +0.85601000        +0.75881000        +6.02198000
@H        -0.06695000        +0.09509000        +4.66829000
@H        -0.72559000        +2.25385000        +4.00132000
@H        +0.18306000        +2.98171000        +5.33227000
$end

$rem
JOBTYPE                   SP
METHOD                    B3LYP
DFT_D                     d3_op
BASIS                     6-311++G(d,p)
SYMMETRY                  False
THRESH                    12
SCF_CONVERGENCE           8
MAX_SUB_FILE_NUM          128
MEM_STATIC                400
MEM_TOTAL                 4000
$end
