$molecule
0  1
C        +0.22270000        +1.04488000        +0.58595000
C        +0.62626000        -0.41353000        +0.99871000
C        +1.33008000        +1.39974000        -0.43491000
C        +2.63070000        +1.71700000        +0.32855000
C        +3.04336000        +0.29351000        +0.80300000
C        +1.94423000        -0.59299000        +0.15262000
O        +1.62840000        +0.13663000        -1.04376000
H        +3.37234000        +2.13782000        -0.35195000
H        +2.48236000        +2.42488000        +1.14651000
H        +4.02182000        +0.00994000        +0.41161000
H        +3.07359000        +0.18738000        +1.88928000
H        +1.03270000        +2.19943000        -1.08064000
H        +2.24339000        -1.61496000        +0.04786000
H        +0.81693000        -0.48905000        +2.04887000
H        -0.12524000        -1.15356000        +0.81843000
H        -0.74673000        +1.06811000        +0.13365000
H        +0.15552000        +1.72617000        +1.40828000
@C        +2.99942000        +2.66137000        +3.13287000
@C        +3.40298000        +1.20296000        +3.54563000
@C        +4.10680000        +3.01623000        +2.11201000
@C        +5.40742000        +3.33349000        +2.87547000
@C        +5.82008000        +1.91000000        +3.34992000
@C        +4.72095000        +1.02350000        +2.69954000
@O        +4.40512000        +1.75312000        +1.50316000
@H        +6.14906000        +3.75431000        +2.19497000
@H        +5.25908000        +4.04137000        +3.69343000
@H        +6.79854000        +1.62643000        +2.95853000
@H        +5.85031000        +1.80387000        +4.43620000
@H        +3.80942000        +3.81592000        +1.46628000
@H        +5.02011000        +0.00153000        +2.59478000
@H        +3.59365000        +1.12744000        +4.59579000
@H        +2.65148000        +0.46293000        +3.36535000
@H        +2.02999000        +2.68460000        +2.68057000
@H        +2.93224000        +3.34266000        +3.95520000
$end

$rem
JOBTYPE                   SP
METHOD                    B3LYP
DFT_D                     d3_op
BASIS                     6-311++G(d,p)
SYMMETRY                  False
THRESH                    12
SCF_CONVERGENCE           8
MAX_SUB_FILE_NUM          128
MEM_STATIC                400
MEM_TOTAL                 4000
$end
