$molecule
0  1
C        +3.18772000        +2.50632000        +3.01141000
C        +3.59128000        +1.04791000        +3.42417000
C        +4.29510000        +2.86118000        +1.99055000
C        +5.59572000        +3.17844000        +2.75401000
C        +6.00838000        +1.75495000        +3.22846000
C        +4.90925000        +0.86845000        +2.57808000
O        +4.59342000        +1.59807000        +1.38170000
H        +6.33736000        +3.59926000        +2.07351000
H        +5.44738000        +3.88632000        +3.57197000
H        +6.98684000        +1.47138000        +2.83707000
H        +6.03861000        +1.64882000        +4.31474000
H        +3.99772000        +3.66087000        +1.34482000
C        +5.31952000        -0.55123000        +2.25734000
H        +6.22245000        -0.54051000        +1.68331000
H        +4.54453000        -1.02788000        +1.69423000
H        +5.48189000        -1.08985000        +3.16752000
H        +2.21829000        +2.52955000        +2.55911000
H        +3.12054000        +3.18761000        +3.83374000
H        +3.78195000        +0.97239000        +4.47433000
H        +2.83978000        +0.30788000        +3.24389000
@C        +0.22270000        +1.04488000        +0.58595000
@C        +0.62626000        -0.41353000        +0.99871000
@C        +1.33008000        +1.39974000        -0.43491000
@C        +2.63070000        +1.71700000        +0.32855000
@C        +3.04336000        +0.29351000        +0.80300000
@C        +1.94423000        -0.59299000        +0.15262000
@O        +1.62840000        +0.13663000        -1.04376000
@H        +3.37234000        +2.13782000        -0.35195000
@H        +2.48236000        +2.42488000        +1.14651000
@H        +4.02182000        +0.00994000        +0.41161000
@H        +3.07359000        +0.18738000        +1.88928000
@H        +1.03270000        +2.19943000        -1.08064000
@C        +2.35450000        -2.01267000        -0.16812000
@H        +3.25743000        -2.00195000        -0.74215000
@H        +1.57951000        -2.48932000        -0.73123000
@H        +2.51687000        -2.55129000        +0.74206000
@H        -0.74673000        +1.06811000        +0.13365000
@H        +0.15552000        +1.72617000        +1.40828000
@H        +0.81693000        -0.48905000        +2.04887000
@H        -0.12524000        -1.15356000        +0.81843000
$end

$rem
JOBTYPE                   SP
METHOD                    B3LYP
DFT_D                     d3_op
BASIS                     6-311++G(d,p)
SYMMETRY                  False
THRESH                    12
SCF_CONVERGENCE           8
MAX_SUB_FILE_NUM          128
MEM_STATIC                400
MEM_TOTAL                 4000
$end
