$molecule
0  1
C        +4.05553000        +2.93405000        +3.72130000
C        +4.45909000        +1.47564000        +4.13406000
C        +5.16291000        +3.28891000        +2.70044000
C        +6.46353000        +3.60617000        +3.46390000
C        +6.87619000        +2.18268000        +3.93835000
C        +5.77706000        +1.29618000        +3.28797000
O        +5.46123000        +2.02580000        +2.09159000
H        +7.20517000        +4.02699000        +2.78340000
H        +6.31519000        +4.31405000        +4.28186000
H        +7.85465000        +1.89911000        +3.54696000
H        +6.90642000        +2.07655000        +5.02463000
H        +4.86553000        +4.08860000        +2.05471000
C        +6.18733000        -0.12350000        +2.96723000
H        +7.09026000        -0.11278000        +2.39320000
H        +5.41234000        -0.60015000        +2.40412000
H        +6.34970000        -0.66212000        +3.87741000
H        +3.08610000        +2.95728000        +3.26900000
H        +3.98835000        +3.61534000        +4.54363000
H        +4.64976000        +1.40012000        +5.18422000
H        +3.70759000        +0.73561000        +3.95378000
@C        +0.22270000        +1.04488000        +0.58595000
@C        +0.62626000        -0.41353000        +0.99871000
@C        +1.33008000        +1.39974000        -0.43491000
@C        +2.63070000        +1.71700000        +0.32855000
@C        +3.04336000        +0.29351000        +0.80300000
@C        +1.94423000        -0.59299000        +0.15262000
@O        +1.62840000        +0.13663000        -1.04376000
@H        +3.37234000        +2.13782000        -0.35195000
@H        +2.48236000        +2.42488000        +1.14651000
@H        +4.02182000        +0.00994000        +0.41161000
@H        +3.07359000        +0.18738000        +1.88928000
@H        +1.03270000        +2.19943000        -1.08064000
@C        +2.35450000        -2.01267000        -0.16812000
@H        +3.25743000        -2.00195000        -0.74215000
@H        +1.57951000        -2.48932000        -0.73123000
@H        +2.51687000        -2.55129000        +0.74206000
@H        -0.74673000        +1.06811000        +0.13365000
@H        +0.15552000        +1.72617000        +1.40828000
@H        +0.81693000        -0.48905000        +2.04887000
@H        -0.12524000        -1.15356000        +0.81843000
$end

$rem
JOBTYPE                   SP
METHOD                    B3LYP
DFT_D                     d3_op
BASIS                     6-311++G(d,p)
SYMMETRY                  False
THRESH                    12
SCF_CONVERGENCE           8
MAX_SUB_FILE_NUM          128
MEM_STATIC                400
MEM_TOTAL                 4000
$end
