$molecule
0  1
C        -0.54444000        -0.68370000        -0.06689000
C        -0.55709000        +0.71878000        +0.05493000
C        -1.74320000        -1.41616000        -0.12552000
C        -2.93952000        -0.70056000        -0.05285000
C        -2.95313000        +0.68255000        +0.06934000
C        -1.77161000        +1.42404000        +0.12810000
H        -3.90354000        +1.20325000        +0.11710000
H        -3.87892000        -1.24211000        -0.08988000
C        -1.83960000        +2.92746000        +0.24839000
H        -1.24214000        +3.42352000        -0.52065000
H        -1.45503000        +3.26427000        +1.21284000
H        -2.87211000        +3.26623000        +0.14638000
H        -1.73878000        -2.44393000        -0.21875000
H        +0.35825000        -1.18166000        -0.11386000
H        +0.33551000        +1.23549000        +0.09097000
@C        -0.51623000        -1.04119000        +4.01740000
@C        -0.52888000        +0.36129000        +4.13922000
@C        -1.71499000        -1.77365000        +3.95877000
@C        -2.91131000        -1.05805000        +4.03144000
@C        -2.92492000        +0.32506000        +4.15363000
@C        -1.74340000        +1.06655000        +4.21239000
@H        -3.87533000        +0.84576000        +4.20139000
@H        -3.85071000        -1.59960000        +3.99441000
@C        -1.81139000        +2.56997000        +4.33268000
@H        -1.21393000        +3.06603000        +3.56364000
@H        -1.42682000        +2.90678000        +5.29713000
@H        -2.84390000        +2.90874000        +4.23067000
@H        -1.71057000        -2.80142000        +3.86554000
@H        +0.38646000        -1.53915000        +3.97043000
@H        +0.36372000        +0.87800000        +4.17526000
$end

$rem
JOBTYPE                   SP
METHOD                    B3LYP
DFT_D                     d3_op
BASIS                     6-311++G(d,p)
SYMMETRY                  False
THRESH                    12
SCF_CONVERGENCE           8
MAX_SUB_FILE_NUM          128
MEM_STATIC                400
MEM_TOTAL                 4000
$end
