$molecule
0  1
C        -0.55335000        -0.66344000        -0.04955000
C        -0.58369000        +0.72363000        +0.07143000
C        -1.74416000        -1.38805000        -0.12104000
C        -2.96100000        -0.71253000        -0.06974000
C        -2.98560000        +0.67733000        +0.05133000
C        -1.80096000        +1.41593000        +0.12202000
H        -3.93869000        +1.19496000        +0.09042000
H        -3.89285000        -1.26490000        -0.12448000
C        -1.82561000        +2.92062000        +0.24749000
H        -1.30124000        +3.39464000        -0.58804000
H        -1.33421000        +3.24931000        +1.16844000
H        -2.84892000        +3.30103000        +0.25949000
H        -1.72216000        -2.46788000        -0.21620000
H        +0.39889000        -1.18111000        -0.08841000
H        +0.34820000        +1.27792000        +0.12648000
@C        -0.58049000        -1.01999000        +4.03483000
@C        -0.61083000        +0.36708000        +4.15581000
@C        -1.77130000        -1.74460000        +3.96334000
@C        -2.98814000        -1.06908000        +4.01464000
@C        -3.01274000        +0.32078000        +4.13571000
@C        -1.82810000        +1.05938000        +4.20640000
@H        -3.96583000        +0.83841000        +4.17480000
@H        -3.91999000        -1.62145000        +3.95990000
@C        -1.85275000        +2.56407000        +4.33187000
@H        -1.32838000        +3.03809000        +3.49634000
@H        -1.36135000        +2.89276000        +5.25282000
@H        -2.87606000        +2.94448000        +4.34387000
@H        -1.74930000        -2.82443000        +3.86818000
@H        +0.37175000        -1.53766000        +3.99597000
@H        +0.32106000        +0.92137000        +4.21086000
$end

$rem
JOBTYPE                   SP
METHOD                    B3LYP
DFT_D                     d3_op
BASIS                     6-311++G(d,p)
SYMMETRY                  False
THRESH                    12
SCF_CONVERGENCE           8
MAX_SUB_FILE_NUM          128
MEM_STATIC                400
MEM_TOTAL                 4000
$end
