$molecule
0  1
C        -0.54444000        -0.68370000        -0.06689000
C        -0.55709000        +0.71878000        +0.05493000
C        -1.74320000        -1.41616000        -0.12552000
C        -2.93952000        -0.70056000        -0.05285000
C        -2.95313000        +0.68255000        +0.06934000
C        -1.77161000        +1.42404000        +0.12810000
H        -3.90354000        +1.20325000        +0.11710000
H        -3.87892000        -1.24211000        -0.08988000
C        -1.83960000        +2.92746000        +0.24839000
H        -1.24214000        +3.42352000        -0.52065000
H        -1.45503000        +3.26427000        +1.21284000
H        -2.87211000        +3.26623000        +0.14638000
H        -1.73878000        -2.44393000        -0.21875000
H        +0.35825000        -1.18166000        -0.11386000
H        +0.33551000        +1.23549000        +0.09097000
@C        -0.68457000        -0.97684000        +4.02022000
@C        -0.69722000        +0.42564000        +4.14204000
@C        -1.88333000        -1.70930000        +3.96159000
@C        -3.07965000        -0.99370000        +4.03426000
@C        -3.09326000        +0.38941000        +4.15645000
@C        -1.91174000        +1.13090000        +4.21521000
@H        -4.04367000        +0.91011000        +4.20421000
@H        -4.01905000        -1.53525000        +3.99723000
@C        -1.97973000        +2.63432000        +4.33550000
@H        -1.38227000        +3.13038000        +3.56646000
@H        -1.59516000        +2.97113000        +5.29995000
@H        -3.01224000        +2.97309000        +4.23349000
@H        -1.87891000        -2.73707000        +3.86836000
@H        +0.21812000        -1.47480000        +3.97325000
@H        +0.19538000        +0.94235000        +4.17808000
$end

$rem
JOBTYPE                   SP
METHOD                    B3LYP
DFT_D                     d3_op
BASIS                     6-311++G(d,p)
SYMMETRY                  False
THRESH                    12
SCF_CONVERGENCE           8
MAX_SUB_FILE_NUM          128
MEM_STATIC                400
MEM_TOTAL                 4000
$end
