$molecule
0  1
C        -0.54444000        -0.68370000        -0.06689000
C        -0.55709000        +0.71878000        +0.05493000
C        -1.74320000        -1.41616000        -0.12552000
C        -2.93952000        -0.70056000        -0.05285000
C        -2.95313000        +0.68255000        +0.06934000
C        -1.77161000        +1.42404000        +0.12810000
H        -3.90354000        +1.20325000        +0.11710000
H        -3.87892000        -1.24211000        -0.08988000
C        -1.83960000        +2.92746000        +0.24839000
C        -1.78103000        -2.92226000        -0.24590000
H        -1.39752000        -3.25223000        -1.21323000
H        -2.80572000        -3.28175000        -0.13627000
H        -1.16958000        -3.40777000        +0.51926000
H        -1.24214000        +3.42352000        -0.52065000
H        -1.45503000        +3.26427000        +1.21284000
H        -2.87211000        +3.26623000        +0.14638000
H        +0.35825000        -1.18166000        -0.11386000
H        +0.33551000        +1.23549000        +0.09097000
@C        -1.79395000        -0.00641000        +3.77889000
@C        -1.80660000        +1.39607000        +3.90071000
@C        -2.99271000        -0.73887000        +3.72026000
@C        -4.18903000        -0.02327000        +3.79293000
@C        -4.20264000        +1.35984000        +3.91512000
@C        -3.02112000        +2.10133000        +3.97388000
@H        -5.15305000        +1.88054000        +3.96288000
@H        -5.12843000        -0.56482000        +3.75590000
@C        -3.08911000        +3.60475000        +4.09417000
@C        -3.03054000        -2.24497000        +3.59988000
@H        -2.64703000        -2.57494000        +2.63255000
@H        -4.05523000        -2.60446000        +3.70951000
@H        -2.41909000        -2.73048000        +4.36504000
@H        -2.49165000        +4.10081000        +3.32513000
@H        -2.70454000        +3.94156000        +5.05862000
@H        -4.12162000        +3.94352000        +3.99216000
@H        -0.89126000        -0.50437000        +3.73192000
@H        -0.91400000        +1.91278000        +3.93675000
$end

$rem
JOBTYPE                   SP
METHOD                    B3LYP
DFT_D                     d3_op
BASIS                     6-311++G(d,p)
SYMMETRY                  False
THRESH                    12
SCF_CONVERGENCE           8
MAX_SUB_FILE_NUM          128
MEM_STATIC                400
MEM_TOTAL                 4000
$end
