$molecule
0  1
--
0  1
C        -0.58454000        -0.67556000        -0.07544000
C        -0.59851000        +0.70920000        +0.05808000
C        -1.77633000        -1.40990000        -0.13252000
C        -2.97828000        -0.70388000        -0.05611000
C        -2.99244000        +0.68477000        +0.07719000
C        -1.80513000        +1.41687000        +0.13452000
H        -3.94378000        +1.20441000        +0.13594000
H        -3.91864000        -1.24474000        -0.10022000
C        -1.81546000        +2.92210000        +0.24949000
C        -1.75732000        -2.91589000        -0.24640000
H        -1.03160000        -3.25185000        -0.99235000
H        -2.73712000        -3.30600000        -0.53105000
H        -1.48213000        -3.37940000        +0.70725000
H        -1.54006000        +3.39064000        -0.70147000
H        -1.10219000        +3.26991000        +1.00208000
H        -2.80465000        +3.29345000        +0.52612000
H        +0.36601000        -1.19708000        -0.13515000
H        +0.34176000        +1.25035000        +0.10232000
--
0  1
C        -0.54745000        -1.06780000        +4.00559000
C        -0.56142000        +0.31696000        +4.13911000
C        -1.73924000        -1.80214000        +3.94851000
C        -2.94119000        -1.09612000        +4.02492000
C        -2.95535000        +0.29253000        +4.15822000
C        -1.76804000        +1.02463000        +4.21555000
H        -3.90669000        +0.81217000        +4.21697000
H        -3.88155000        -1.63698000        +3.98081000
C        -1.77837000        +2.52986000        +4.33052000
C        -1.72023000        -3.30813000        +3.83463000
H        -0.99451000        -3.64409000        +3.08868000
H        -2.70003000        -3.69824000        +3.54998000
H        -1.44504000        -3.77164000        +4.78828000
H        -1.50297000        +2.99840000        +3.37956000
H        -1.06510000        +2.87767000        +5.08311000
H        -2.76756000        +2.90121000        +4.60715000
H        +0.40310000        -1.58932000        +3.94588000
H        +0.37885000        +0.85811000        +4.18335000
$end

$rem
JOBTYPE                   SP
METHOD                    B3LYP
DFT_D                     d3_op
BASIS                     6-311++G(d,p)
SYMMETRY                  False
THRESH                    12
SCF_CONVERGENCE           8
MAX_SUB_FILE_NUM          128
MEM_STATIC                400
MEM_TOTAL                 4000
$end
