$molecule
0  1
--
0  1
C        -0.54444000        -0.68370000        -0.06689000
C        -0.55709000        +0.71878000        +0.05493000
C        -1.74320000        -1.41616000        -0.12552000
C        -2.93952000        -0.70056000        -0.05285000
C        -2.95313000        +0.68255000        +0.06934000
C        -1.77161000        +1.42404000        +0.12810000
H        -3.90354000        +1.20325000        +0.11710000
H        -3.87892000        -1.24211000        -0.08988000
C        -1.83960000        +2.92746000        +0.24839000
C        -1.78103000        -2.92226000        -0.24590000
H        -1.39752000        -3.25223000        -1.21323000
H        -2.80572000        -3.28175000        -0.13627000
H        -1.16958000        -3.40777000        +0.51926000
H        -1.24214000        +3.42352000        -0.52065000
H        -1.45503000        +3.26427000        +1.21284000
H        -2.87211000        +3.26623000        +0.14638000
H        +0.35825000        -1.18166000        -0.11386000
H        +0.33551000        +1.23549000        +0.09097000
--
0  1
C        -2.15966000        +0.19181000        +4.90448000
C        -2.17231000        +1.59429000        +5.02630000
C        -3.35842000        -0.54065000        +4.84585000
C        -4.55474000        +0.17495000        +4.91852000
C        -4.56835000        +1.55806000        +5.04071000
C        -3.38683000        +2.29955000        +5.09947000
H        -5.51876000        +2.07876000        +5.08847000
H        -5.49414000        -0.36660000        +4.88149000
C        -3.45482000        +3.80297000        +5.21976000
C        -3.39625000        -2.04675000        +4.72547000
H        -3.01274000        -2.37672000        +3.75814000
H        -4.42094000        -2.40624000        +4.83510000
H        -2.78480000        -2.53226000        +5.49063000
H        -2.85736000        +4.29903000        +4.45072000
H        -3.07025000        +4.13978000        +6.18421000
H        -4.48733000        +4.14174000        +5.11775000
H        -1.25697000        -0.30615000        +4.85751000
H        -1.27971000        +2.11100000        +5.06234000
$end

$rem
JOBTYPE                   SP
METHOD                    B3LYP
DFT_D                     d3_op
BASIS                     6-311++G(d,p)
SYMMETRY                  False
THRESH                    12
SCF_CONVERGENCE           8
MAX_SUB_FILE_NUM          128
MEM_STATIC                400
MEM_TOTAL                 4000
$end
