$molecule
0  1
C        +3.40576000        +2.89793000        +3.50559000
C        +3.80932000        +1.43952000        +3.91835000
C        +4.51314000        +3.25279000        +2.48473000
C        +5.81376000        +3.57005000        +3.24819000
C        +6.22642000        +2.14656000        +3.72264000
C        +5.12729000        +1.26006000        +3.07226000
O        +4.81146000        +1.98968000        +1.87588000
H        +6.55540000        +3.99087000        +2.56769000
H        +5.66542000        +4.27793000        +4.06615000
H        +7.20488000        +1.86299000        +3.33125000
H        +6.25665000        +2.04043000        +4.80892000
H        +4.21576000        +4.05248000        +1.83900000
H        +5.42645000        +0.23809000        +2.96750000
H        +3.99999000        +1.36400000        +4.96851000
H        +3.05782000        +0.69949000        +3.73807000
H        +2.43633000        +2.92116000        +3.05329000
H        +3.33858000        +3.57922000        +4.32792000
@C        +0.22270000        +1.04488000        +0.58595000
@C        +0.62626000        -0.41353000        +0.99871000
@C        +1.33008000        +1.39974000        -0.43491000
@C        +2.63070000        +1.71700000        +0.32855000
@C        +3.04336000        +0.29351000        +0.80300000
@C        +1.94423000        -0.59299000        +0.15262000
@O        +1.62840000        +0.13663000        -1.04376000
@H        +3.37234000        +2.13782000        -0.35195000
@H        +2.48236000        +2.42488000        +1.14651000
@H        +4.02182000        +0.00994000        +0.41161000
@H        +3.07359000        +0.18738000        +1.88928000
@H        +1.03270000        +2.19943000        -1.08064000
@H        +2.24339000        -1.61496000        +0.04786000
@H        +0.81693000        -0.48905000        +2.04887000
@H        -0.12524000        -1.15356000        +0.81843000
@H        -0.74673000        +1.06811000        +0.13365000
@H        +0.15552000        +1.72617000        +1.40828000
$end

$rem
JOBTYPE                   SP
METHOD                    B3LYP
DFT_D                     d3_op
BASIS                     6-311++G(d,p)
SYMMETRY                  False
THRESH                    12
SCF_CONVERGENCE           8
MAX_SUB_FILE_NUM          128
MEM_STATIC                400
MEM_TOTAL                 4000
$end
