$molecule
0  1
--
0  1
C        +0.22270000        +1.04488000        +0.58595000
C        +0.62626000        -0.41353000        +0.99871000
C        +1.33008000        +1.39974000        -0.43491000
C        +2.63070000        +1.71700000        +0.32855000
C        +3.04336000        +0.29351000        +0.80300000
C        +1.94423000        -0.59299000        +0.15262000
O        +1.62840000        +0.13663000        -1.04376000
H        +3.37234000        +2.13782000        -0.35195000
H        +2.48236000        +2.42488000        +1.14651000
H        +4.02182000        +0.00994000        +0.41161000
H        +3.07359000        +0.18738000        +1.88928000
H        +1.03270000        +2.19943000        -1.08064000
H        +2.24339000        -1.61496000        +0.04786000
H        +0.81693000        -0.48905000        +2.04887000
H        -0.12524000        -1.15356000        +0.81843000
H        -0.74673000        +1.06811000        +0.13365000
H        +0.15552000        +1.72617000        +1.40828000
--
0  1
C        +4.28619000        +3.41048000        +4.31315000
C        +4.68975000        +1.95207000        +4.72591000
C        +5.39357000        +3.76534000        +3.29229000
C        +6.69419000        +4.08260000        +4.05575000
C        +7.10685000        +2.65911000        +4.53020000
C        +6.00772000        +1.77261000        +3.87982000
O        +5.69189000        +2.50223000        +2.68344000
H        +7.43583000        +4.50342000        +3.37525000
H        +6.54585000        +4.79048000        +4.87371000
H        +8.08531000        +2.37554000        +4.13881000
H        +7.13708000        +2.55298000        +5.61648000
H        +5.09619000        +4.56503000        +2.64656000
H        +6.30688000        +0.75064000        +3.77506000
H        +4.88042000        +1.87655000        +5.77607000
H        +3.93825000        +1.21204000        +4.54563000
H        +3.31676000        +3.43371000        +3.86085000
H        +4.21901000        +4.09177000        +5.13548000
$end

$rem
JOBTYPE                   SP
METHOD                    B3LYP
DFT_D                     d3_op
BASIS                     6-311++G(d,p)
SYMMETRY                  False
THRESH                    12
SCF_CONVERGENCE           8
MAX_SUB_FILE_NUM          128
MEM_STATIC                400
MEM_TOTAL                 4000
$end
