$molecule
0  1
C        +4.56175000        +3.18357000        +4.13541000
C        +4.96531000        +1.72516000        +4.54817000
C        +5.66913000        +3.53843000        +3.11455000
C        +6.96975000        +3.85569000        +3.87801000
C        +7.38241000        +2.43220000        +4.35246000
C        +6.28328000        +1.54570000        +3.70208000
O        +5.96745000        +2.27532000        +2.50570000
H        +7.71139000        +4.27651000        +3.19751000
H        +6.82141000        +4.56357000        +4.69597000
H        +8.36087000        +2.14863000        +3.96107000
H        +7.41264000        +2.32607000        +5.43874000
H        +5.37175000        +4.33812000        +2.46882000
C        +6.69355000        +0.12602000        +3.38134000
H        +7.59648000        +0.13674000        +2.80731000
H        +5.91856000        -0.35063000        +2.81823000
H        +6.85592000        -0.41260000        +4.29152000
H        +3.59232000        +3.20680000        +3.68311000
H        +4.49457000        +3.86486000        +4.95774000
H        +5.15598000        +1.64964000        +5.59833000
H        +4.21381000        +0.98513000        +4.36789000
@C        +0.22270000        +1.04488000        +0.58595000
@C        +0.62626000        -0.41353000        +0.99871000
@C        +1.33008000        +1.39974000        -0.43491000
@C        +2.63070000        +1.71700000        +0.32855000
@C        +3.04336000        +0.29351000        +0.80300000
@C        +1.94423000        -0.59299000        +0.15262000
@O        +1.62840000        +0.13663000        -1.04376000
@H        +3.37234000        +2.13782000        -0.35195000
@H        +2.48236000        +2.42488000        +1.14651000
@H        +4.02182000        +0.00994000        +0.41161000
@H        +3.07359000        +0.18738000        +1.88928000
@H        +1.03270000        +2.19943000        -1.08064000
@C        +2.35450000        -2.01267000        -0.16812000
@H        +3.25743000        -2.00195000        -0.74215000
@H        +1.57951000        -2.48932000        -0.73123000
@H        +2.51687000        -2.55129000        +0.74206000
@H        -0.74673000        +1.06811000        +0.13365000
@H        +0.15552000        +1.72617000        +1.40828000
@H        +0.81693000        -0.48905000        +2.04887000
@H        -0.12524000        -1.15356000        +0.81843000
$end

$rem
JOBTYPE                   SP
METHOD                    B3LYP
DFT_D                     d3_op
BASIS                     6-311++G(d,p)
SYMMETRY                  False
THRESH                    12
SCF_CONVERGENCE           8
MAX_SUB_FILE_NUM          128
MEM_STATIC                400
MEM_TOTAL                 4000
$end
