$molecule
0  1
C        +3.62162000        +2.72018000        +3.36636000
C        +4.02518000        +1.26177000        +3.77912000
C        +4.72900000        +3.07504000        +2.34550000
C        +6.02962000        +3.39230000        +3.10896000
C        +6.44228000        +1.96881000        +3.58341000
C        +5.34315000        +1.08231000        +2.93303000
O        +5.02732000        +1.81193000        +1.73665000
H        +6.77126000        +3.81312000        +2.42846000
H        +5.88128000        +4.10018000        +3.92692000
H        +7.42074000        +1.68524000        +3.19202000
H        +6.47251000        +1.86268000        +4.66969000
H        +4.43162000        +3.87473000        +1.69977000
C        +5.75342000        -0.33737000        +2.61229000
H        +6.65635000        -0.32665000        +2.03826000
H        +4.97843000        -0.81402000        +2.04918000
H        +5.91579000        -0.87599000        +3.52247000
H        +2.65219000        +2.74341000        +2.91406000
H        +3.55444000        +3.40147000        +4.18869000
H        +4.21585000        +1.18625000        +4.82928000
H        +3.27368000        +0.52174000        +3.59884000
@C        +0.22270000        +1.04488000        +0.58595000
@C        +0.62626000        -0.41353000        +0.99871000
@C        +1.33008000        +1.39974000        -0.43491000
@C        +2.63070000        +1.71700000        +0.32855000
@C        +3.04336000        +0.29351000        +0.80300000
@C        +1.94423000        -0.59299000        +0.15262000
@O        +1.62840000        +0.13663000        -1.04376000
@H        +3.37234000        +2.13782000        -0.35195000
@H        +2.48236000        +2.42488000        +1.14651000
@H        +4.02182000        +0.00994000        +0.41161000
@H        +3.07359000        +0.18738000        +1.88928000
@H        +1.03270000        +2.19943000        -1.08064000
@C        +2.35450000        -2.01267000        -0.16812000
@H        +3.25743000        -2.00195000        -0.74215000
@H        +1.57951000        -2.48932000        -0.73123000
@H        +2.51687000        -2.55129000        +0.74206000
@H        -0.74673000        +1.06811000        +0.13365000
@H        +0.15552000        +1.72617000        +1.40828000
@H        +0.81693000        -0.48905000        +2.04887000
@H        -0.12524000        -1.15356000        +0.81843000
$end

$rem
JOBTYPE                   SP
METHOD                    B3LYP
DFT_D                     d3_op
BASIS                     6-311++G(d,p)
SYMMETRY                  False
THRESH                    12
SCF_CONVERGENCE           8
MAX_SUB_FILE_NUM          128
MEM_STATIC                400
MEM_TOTAL                 4000
$end
