$molecule
0  1
C        -0.54444000        -0.68370000        -0.06689000
C        -0.55709000        +0.71878000        +0.05493000
C        -1.74320000        -1.41616000        -0.12552000
C        -2.93952000        -0.70056000        -0.05285000
C        -2.95313000        +0.68255000        +0.06934000
C        -1.77161000        +1.42404000        +0.12810000
H        -3.90354000        +1.20325000        +0.11710000
H        -3.87892000        -1.24211000        -0.08988000
C        -1.83960000        +2.92746000        +0.24839000
H        -1.24214000        +3.42352000        -0.52065000
H        -1.45503000        +3.26427000        +1.21284000
H        -2.87211000        +3.26623000        +0.14638000
H        -1.73878000        -2.44393000        -0.21875000
H        +0.35825000        -1.18166000        -0.11386000
H        +0.33551000        +1.23549000        +0.09097000
@C        -0.70507000        -1.01974000        +4.61833000
@C        -0.71772000        +0.38274000        +4.74015000
@C        -1.90383000        -1.75220000        +4.55970000
@C        -3.10015000        -1.03660000        +4.63237000
@C        -3.11376000        +0.34651000        +4.75456000
@C        -1.93224000        +1.08800000        +4.81332000
@H        -4.06417000        +0.86721000        +4.80232000
@H        -4.03955000        -1.57815000        +4.59534000
@C        -2.00023000        +2.59142000        +4.93361000
@H        -1.40277000        +3.08748000        +4.16457000
@H        -1.61566000        +2.92823000        +5.89806000
@H        -3.03274000        +2.93019000        +4.83160000
@H        -1.89941000        -2.77997000        +4.46647000
@H        +0.19762000        -1.51770000        +4.57136000
@H        +0.17488000        +0.89945000        +4.77619000
$end

$rem
JOBTYPE                   SP
METHOD                    B3LYP
DFT_D                     d3_op
BASIS                     6-311++G(d,p)
SYMMETRY                  False
THRESH                    12
SCF_CONVERGENCE           8
MAX_SUB_FILE_NUM          128
MEM_STATIC                400
MEM_TOTAL                 4000
$end
