$molecule
0  1
--
0  1
C        -0.54444000        -0.68370000        -0.06689000
C        -0.55709000        +0.71878000        +0.05493000
C        -1.74320000        -1.41616000        -0.12552000
C        -2.93952000        -0.70056000        -0.05285000
C        -2.95313000        +0.68255000        +0.06934000
C        -1.77161000        +1.42404000        +0.12810000
H        -3.90354000        +1.20325000        +0.11710000
H        -3.87892000        -1.24211000        -0.08988000
C        -1.83960000        +2.92746000        +0.24839000
C        -1.78103000        -2.92226000        -0.24590000
H        -1.39752000        -3.25223000        -1.21323000
H        -2.80572000        -3.28175000        -0.13627000
H        -1.16958000        -3.40777000        +0.51926000
H        -1.24214000        +3.42352000        -0.52065000
H        -1.45503000        +3.26427000        +1.21284000
H        -2.87211000        +3.26623000        +0.14638000
H        +0.35825000        -1.18166000        -0.11386000
H        +0.33551000        +1.23549000        +0.09097000
--
0  1
C        -2.37299000        +0.30745000        +5.56108000
C        -2.38564000        +1.70993000        +5.68290000
C        -3.57175000        -0.42501000        +5.50245000
C        -4.76807000        +0.29059000        +5.57512000
C        -4.78168000        +1.67370000        +5.69731000
C        -3.60016000        +2.41519000        +5.75607000
H        -5.73209000        +2.19440000        +5.74507000
H        -5.70747000        -0.25096000        +5.53809000
C        -3.66815000        +3.91861000        +5.87636000
C        -3.60958000        -1.93111000        +5.38207000
H        -3.22607000        -2.26108000        +4.41474000
H        -4.63427000        -2.29060000        +5.49170000
H        -2.99813000        -2.41662000        +6.14723000
H        -3.07069000        +4.41467000        +5.10732000
H        -3.28358000        +4.25542000        +6.84081000
H        -4.70066000        +4.25738000        +5.77435000
H        -1.47030000        -0.19051000        +5.51411000
H        -1.49304000        +2.22664000        +5.71894000
$end

$rem
JOBTYPE                   SP
METHOD                    B3LYP
DFT_D                     d3_op
BASIS                     6-311++G(d,p)
SYMMETRY                  False
THRESH                    12
SCF_CONVERGENCE           8
MAX_SUB_FILE_NUM          128
MEM_STATIC                400
MEM_TOTAL                 4000
$end
