memory 750000 mb

molecule mol {
0 1
C         -1.11024        0.75335        2.23594
H         -2.02814        0.22374        2.48454
H         -1.25891        1.81248        2.44577
H         -0.31766        0.40136        2.89782
--
0 1
C          0.49419        1.45962        0.51005
O          0.90163        2.29143        1.28617
O          1.05881        1.26291       -0.69743
C          2.21072        2.06204       -1.00591
H          1.95319        3.12232       -1.01035
H          3.00042        1.89087       -0.27248
H          2.52624        1.73954       -1.99612
--
0 1
C         -0.80925       -1.98266        1.44758
H         -0.66950       -2.99529        1.05921
H         -1.82139       -1.92231        1.84593
H         -0.10419       -1.83488        2.26432
C          0.77667       -1.33995       -0.27916
O          0.96533       -1.85801       -1.35149
O          1.76505       -1.12064        0.61813
C          3.09346       -1.45005        0.18077
H          3.34261       -0.89216       -0.72346
H          3.74933       -1.16648        1.00096
H          3.17527       -2.51834       -0.02593
C         -0.58362       -0.96457        0.30341
C         -0.73162        0.57149        0.75675
C         -1.73542       -1.11408       -0.76906
C         -1.39293       -0.26504       -1.98089
C         -1.52781        1.01513       -1.62472
C         -1.95394        1.04174       -0.16701
C         -2.83099       -0.23023       -0.13507
H         -1.26915        1.88760       -2.20880
H         -2.39600        1.97071        0.19273
H         -1.98042       -2.15589       -0.97158
H         -3.70727       -0.13976       -0.77824
H         -3.15132       -0.53805        0.86076
H         -0.99872       -0.65327       -2.90825

symmetry c1
no_reorient
no_com
}

set {
basis jun-cc-pvdz
scf_type df
guess sad
freeze_core true
}

energy('fisapt0')
