memory 750000 mb

molecule mol {
0 1
C          0.91568        1.42629       -2.02796
H          0.68920        2.49600       -2.02510
H          0.35869        0.97721       -2.84854
H          1.97982        1.31407       -2.22168
--
0 1
C         -1.01156        1.11971       -0.60794
O         -1.75965        0.99014       -1.54716
O         -1.40801        1.64949        0.56666
C         -2.81035        1.93992        0.67741
H         -3.11444        2.67176       -0.07259
H         -2.94749        2.33854        1.68060
H         -3.39560        1.02880        0.54310
--
0 1
C          1.42309       -1.37174       -1.82070
H          0.66448       -1.34863       -2.60688
H          1.68948       -2.41233       -1.63343
H          2.30837       -0.85288       -2.18656
C         -0.13820       -1.73542        0.02422
O          0.16552       -2.86550        0.33266
O         -1.39332       -1.27602        0.11298
C         -2.38964       -2.20567        0.57573
H         -3.33759       -1.68005        0.48449
H         -2.19833       -2.48187        1.61369
H         -2.38682       -3.10312       -0.04341
C          0.89590       -0.73959       -0.51767
C          0.49119        0.81551       -0.66784
C          2.03479       -0.66639        0.59642
C          1.32962       -0.35137        1.90843
C          0.91177        0.91535        1.83637
C          1.34890        1.47125        0.48684
C          2.67988        0.69920        0.30999
H          0.29583        1.44728        2.54571
H          1.38433        2.55757        0.40961
H          2.66829       -1.55067        0.58600
H          3.41748        0.96917        1.06695
H          3.13262        0.78603       -0.67719
H          1.11822       -1.07646        2.68279

symmetry c1
no_reorient
no_com
}

set {
basis jun-cc-pvdz
scf_type df
guess sad
freeze_core true
}

energy('fisapt0')
