memory 750000 mb

molecule mol {
0 1
C          0.29464        1.75004       -1.87567
H         -0.45737        2.54441       -1.89239
H          0.12894        1.11164       -2.74326
H          1.27216        2.22110       -1.96685
--
0 1
C         -1.29188        0.48291       -0.59488
O         -1.71777       -0.32296       -1.38903
O         -2.08289        1.14903        0.26770
C         -3.48089        0.80868        0.22968
H         -3.95357        1.43959        0.97936
H         -3.89651        1.00705       -0.75927
H         -3.62029       -0.24588        0.47200
--
0 1
C          2.18646       -0.38303       -1.59485
H          2.73820        0.54076       -1.76043
H          1.66500       -0.64797       -2.51494
H          2.90387       -1.17884       -1.39402
C          0.56705       -1.64679       -0.24626
O          0.88859       -2.62564       -0.87543
O         -0.38574       -1.68140        0.70751
C         -1.13264       -2.90590        0.80853
H         -1.80565       -2.76511        1.65207
H         -1.69788       -3.06866       -0.11094
H         -0.46807       -3.75276        0.98224
C          1.21005       -0.26304       -0.41449
C          0.15926        0.95019       -0.55597
C          2.00265        0.18167        0.89759
C          1.07392        0.15292        2.10101
C          0.20823        1.16040        1.96579
C          0.54230        1.87628        0.66843
C          2.07793        1.70973        0.67342
H         -0.65325        1.37325        2.58169
H          0.14709        2.88567        0.56261
H          2.94337       -0.35914        1.00249
H          2.54507        2.22454        1.51364
H          2.57302        2.00902       -0.25015
H          1.06158       -0.62420        2.85235

symmetry c1
no_reorient
no_com
}

set {
basis jun-cc-pvdz
scf_type df
guess sad
freeze_core true
}

energy('fisapt0')
