memory 750000 mb

molecule mol {
0 1
C          2.46420       -0.49209        0.83221
H          2.15495        0.23352        1.58710
H          2.98329       -1.32596        1.32736
O          3.30198        0.11177       -0.14169
C          4.29406        0.94637        0.42842
H          3.83641        1.76751        0.99377
H          4.87959        1.35676       -0.39503
H          4.96149        0.37942        1.09289
--
0 1
C          0.32282        1.43692       -0.22970
O          0.93784        1.95406        0.66471
O         -0.48595        2.12547       -1.07171
C         -0.71843        3.50280       -0.72970
H         -1.17568        3.56689        0.25882
H         -1.39551        3.88121       -1.49290
H          0.21723        4.06381       -0.73581
--
0 1
H         -1.45859       -2.56472        0.61950
C         -2.11744       -0.05076        0.19693
O         -1.95876        0.76806        1.06591
O         -3.33025       -0.54207       -0.15016
C         -4.45218       -0.04888        0.60588
H         -4.54618        1.03163        0.48760
H         -4.33200       -0.28498        1.66429
H         -5.32285       -0.55574        0.19557
C         -1.04176       -0.73906       -0.61545
C          0.34700       -0.01850       -0.67781
C         -0.64106       -2.06825        0.10073
C          0.17032       -2.94713       -0.87366
C          1.54216       -2.21437       -0.85514
C          1.25208       -1.02862        0.10220
O          0.33571       -1.62300        1.04311
H         -1.44705       -0.93525       -1.60715
H          0.66579        0.02555       -1.72073
H          0.25344       -3.96388       -0.48687
H         -0.28524       -2.99802       -1.86447
H          2.32166       -2.84242       -0.42146
H          1.88234       -1.88312       -1.83622

symmetry c1
no_reorient
no_com
}

set {
basis jun-cc-pvdz
scf_type df
guess sad
freeze_core true
}

energy('fisapt0')
