memory 750000 mb

molecule mol {
0 1
C          2.64448       -0.04983       -0.60697
H          2.34283       -0.88987       -1.23545
H          3.27920        0.62252       -1.20325
O          3.33646       -0.49740        0.54600
C          4.26965       -1.52423        0.26474
H          3.76423       -2.40966       -0.13953
H          4.75431       -1.78356        1.20650
H          5.03500       -1.18640       -0.44878
--
0 1
C          0.02968       -1.43044        0.09763
O          0.90148       -2.24478       -0.08892
O         -1.27297       -1.72392       -0.04805
C         -1.58389       -3.04980       -0.51480
H         -1.13458       -3.21924       -1.49370
H         -1.21485       -3.79659        0.18934
H         -2.66873       -3.08509       -0.58170
--
0 1
H         -0.88879        2.56280       -1.21472
C         -2.23480        0.62116       -0.05904
O         -2.60667        0.64200       -1.20516
O         -3.03368        0.28949        0.98012
C         -4.34887       -0.17436        0.63649
H         -4.28542       -1.06230        0.00508
H         -4.83119       -0.41242        1.58222
H         -4.90511        0.60050        0.10636
C         -0.87278        1.06357        0.44328
C          0.27260       -0.01104        0.60357
C         -0.20182        2.08603       -0.52156
C          0.71007        3.00172        0.30698
C          1.82203        1.99329        0.70802
C          1.44068        0.73761       -0.13324
O          0.74292        1.29308       -1.25669
H         -1.05119        1.51696        1.41948
H          0.52072       -0.14205        1.65932
H          1.10454        3.80396       -0.31892
H          0.19935        3.45288        1.16029
H          2.81353        2.34479        0.42101
H          1.84906        1.77557        1.77611

symmetry c1
no_reorient
no_com
}

set {
basis jun-cc-pvdz
scf_type df
guess sad
freeze_core true
}

energy('fisapt0')
