memory 750000 mb

molecule mol {
0 1
C          2.42154       -0.12590       -0.64488
H          1.97973       -0.99156       -1.15606
H          3.05698        0.40114       -1.37125
O          3.16815       -0.53095        0.48698
C          4.07500       -1.58136        0.21010
H          3.54522       -2.48037       -0.13259
H          4.81012       -1.28708       -0.55220
H          4.59596       -1.80832        1.14011
--
0 1
C         -0.07039       -1.26282        0.41225
O          0.18773       -2.19850        1.12864
O         -0.61930       -1.39475       -0.81313
C         -0.93696       -2.73260       -1.23010
H         -0.03212       -3.33981       -1.29112
H         -1.62946       -3.19749       -0.52621
H         -1.39486       -2.62769       -2.21112
--
0 1
H         -1.00875        2.63860       -1.20457
C         -2.26520        0.63009        0.04128
O         -2.89384        0.97718       -0.92544
O         -2.69538       -0.30099        0.92059
C         -3.92842       -0.96485        0.59056
H         -3.84674       -1.44805       -0.38460
H         -4.75409       -0.25194        0.56922
H         -4.07854       -1.70345        1.37471
C         -0.94087        1.21054        0.50078
C          0.22278        0.18459        0.75439
C         -0.29945        2.17179       -0.52755
C          0.68605        3.10179        0.20605
C          1.84248        2.10997        0.52691
C          1.33756        0.81330       -0.15988
O          0.58307        1.31268       -1.26941
H         -1.16348        1.72920        1.43767
H          0.53544        0.17789        1.79537
H          1.01935        3.89771       -0.46152
H          0.25093        3.56340        1.09493
H          2.78274        2.42608        0.07282
H          2.01854        1.96941        1.59324

symmetry c1
no_reorient
no_com
}

set {
basis jun-cc-pvdz
scf_type df
guess sad
freeze_core true
}

energy('fisapt0')
