memory 750000 mb

molecule mol {
0 1
C          1.56048       -2.89066       -0.09736
H          1.35406       -3.95285       -0.24028
H          2.16661       -2.55186       -0.94174
H          2.16704       -2.77683        0.80435
--
0 1
C          1.48890        0.05139       -0.33645
O          1.68370        0.71553       -1.32602
O          2.39815       -0.12048        0.64012
C          3.65460        0.55648        0.45033
H          4.14522        0.20399       -0.45833
H          4.24940        0.31470        1.32819
H          3.49529        1.63313        0.37712
--
0 1
C          0.22571       -0.71168       -0.06405
C         -0.99880       -0.02155       -0.00552
C          0.26968       -2.11331        0.00984
C         -0.94072       -2.79111        0.16314
C         -2.14927       -2.11075        0.23717
C         -2.21211       -0.71942        0.14374
H         -3.06939       -2.67168        0.36259
H         -0.93576       -3.87474        0.21806
C         -3.55453       -0.03100        0.21310
H         -3.82482        0.39983       -0.75303
H         -3.55701        0.78971        0.93431
H         -4.32733       -0.74403        0.50637
C         -1.02621        1.47042       -0.11431
O         -1.80499        2.10249       -0.78581
O         -0.07613        2.03904        0.65824
C          0.08678        3.46089        0.50952
H         -0.84634        3.97930        0.73298
H          0.39771        3.69375       -0.51017
H          0.86119        3.73902        1.22095

symmetry c1
no_reorient
no_com
}

set {
basis jun-cc-pvdz
scf_type df
guess sad
freeze_core true
}

energy('fisapt0')
