$molecule
0  1
--
0  1
C        +0.20238000        +1.04766000        +0.59128000
C        +0.63819000        -0.38392000        +1.03507000
C        +1.32502000        +1.40342000        -0.40773000
C        +2.63024000        +1.71632000        +0.35656000
C        +3.06844000        +0.28546000        +0.80025000
C        +1.92879000        -0.57154000        +0.20725000
O        +1.61715000        +0.12844000        -1.01410000
H        +3.36771000        +2.16806000        -0.30914000
H        +2.46905000        +2.39751000        +1.19495000
H        +4.02649000        +0.00980000        +0.35668000
H        +3.15140000        +0.17666000        +1.88393000
H        +1.05332000        +2.11810000        -1.18255000
H        +2.19020000        -1.60239000        -0.02473000
H        +0.81538000        -0.46660000        +2.10960000
H        -0.10758000        -1.13032000        +0.75591000
H        -0.76622000        +1.02844000        +0.08894000
H        +0.14243000        +1.75630000        +1.41989000
--
0  1
C        +0.24697000        +2.39262000        +4.88536000
C        +0.68278000        +0.96104000        +5.32915000
C        +1.36961000        +2.74838000        +3.88635000
C        +2.67483000        +3.06128000        +4.65064000
C        +3.11303000        +1.63042000        +5.09433000
C        +1.97338000        +0.77342000        +4.50133000
O        +1.66174000        +1.47340000        +3.27998000
H        +3.41230000        +3.51302000        +3.98494000
H        +2.51364000        +3.74247000        +5.48903000
H        +4.07108000        +1.35476000        +4.65076000
H        +3.19599000        +1.52162000        +6.17801000
H        +1.09791000        +3.46306000        +3.11153000
H        +2.23479000        -0.25743000        +4.26935000
H        +0.85997000        +0.87836000        +6.40368000
H        -0.06299000        +0.21464000        +5.04999000
H        -0.72163000        +2.37340000        +4.38302000
H        +0.18702000        +3.10126000        +5.71397000
$end

$rem
JOBTYPE                   SP
METHOD                    B3LYP
DFT_D                     d3_op
BASIS                     6-311++G(d,p)
SYMMETRY                  False
THRESH                    12
SCF_CONVERGENCE           8
MAX_SUB_FILE_NUM          128
MEM_STATIC                400
MEM_TOTAL                 4000
$end
