$molecule
0  1
C        +3.27031000        +2.81908000        +3.38135000
C        +3.67387000        +1.36067000        +3.79411000
C        +4.37769000        +3.17394000        +2.36049000
C        +5.67831000        +3.49120000        +3.12395000
C        +6.09097000        +2.06771000        +3.59840000
C        +4.99184000        +1.18121000        +2.94802000
O        +4.67601000        +1.91083000        +1.75164000
H        +6.41995000        +3.91202000        +2.44345000
H        +5.52997000        +4.19908000        +3.94191000
H        +7.06943000        +1.78414000        +3.20701000
H        +6.12120000        +1.96158000        +4.68468000
H        +4.08031000        +3.97363000        +1.71476000
H        +5.29100000        +0.15924000        +2.84326000
H        +3.86454000        +1.28515000        +4.84427000
H        +2.92237000        +0.62064000        +3.61383000
H        +2.30088000        +2.84231000        +2.92905000
H        +3.20313000        +3.50037000        +4.20368000
@C        +0.22270000        +1.04488000        +0.58595000
@C        +0.62626000        -0.41353000        +0.99871000
@C        +1.33008000        +1.39974000        -0.43491000
@C        +2.63070000        +1.71700000        +0.32855000
@C        +3.04336000        +0.29351000        +0.80300000
@C        +1.94423000        -0.59299000        +0.15262000
@O        +1.62840000        +0.13663000        -1.04376000
@H        +3.37234000        +2.13782000        -0.35195000
@H        +2.48236000        +2.42488000        +1.14651000
@H        +4.02182000        +0.00994000        +0.41161000
@H        +3.07359000        +0.18738000        +1.88928000
@H        +1.03270000        +2.19943000        -1.08064000
@H        +2.24339000        -1.61496000        +0.04786000
@H        +0.81693000        -0.48905000        +2.04887000
@H        -0.12524000        -1.15356000        +0.81843000
@H        -0.74673000        +1.06811000        +0.13365000
@H        +0.15552000        +1.72617000        +1.40828000
$end

$rem
JOBTYPE                   SP
METHOD                    B3LYP
DFT_D                     d3_op
BASIS                     6-311++G(d,p)
SYMMETRY                  False
THRESH                    12
SCF_CONVERGENCE           8
MAX_SUB_FILE_NUM          128
MEM_STATIC                400
MEM_TOTAL                 4000
$end
