$molecule
0  1
--
0  1
C        +0.22270000        +1.04488000        +0.58595000
C        +0.62626000        -0.41353000        +0.99871000
C        +1.33008000        +1.39974000        -0.43491000
C        +2.63070000        +1.71700000        +0.32855000
C        +3.04336000        +0.29351000        +0.80300000
C        +1.94423000        -0.59299000        +0.15262000
O        +1.62840000        +0.13663000        -1.04376000
H        +3.37234000        +2.13782000        -0.35195000
H        +2.48236000        +2.42488000        +1.14651000
H        +4.02182000        +0.00994000        +0.41161000
H        +3.07359000        +0.18738000        +1.88928000
H        +1.03270000        +2.19943000        -1.08064000
C        +2.35450000        -2.01267000        -0.16812000
H        +3.25743000        -2.00195000        -0.74215000
H        +1.57951000        -2.48932000        -0.73123000
H        +2.51687000        -2.55129000        +0.74206000
H        -0.74673000        +1.06811000        +0.13365000
H        +0.15552000        +1.72617000        +1.40828000
H        +0.81693000        -0.48905000        +2.04887000
H        -0.12524000        -1.15356000        +0.81843000
--
0  1
C        +3.47699000        +2.64889000        +3.24804000
C        +3.88055000        +1.19048000        +3.66080000
C        +4.58437000        +3.00375000        +2.22718000
C        +5.88499000        +3.32101000        +2.99064000
C        +6.29765000        +1.89752000        +3.46509000
C        +5.19852000        +1.01102000        +2.81471000
O        +4.88269000        +1.74064000        +1.61833000
H        +6.62663000        +3.74183000        +2.31014000
H        +5.73665000        +4.02889000        +3.80860000
H        +7.27611000        +1.61395000        +3.07370000
H        +6.32788000        +1.79139000        +4.55137000
H        +4.28699000        +3.80344000        +1.58145000
C        +5.60879000        -0.40866000        +2.49397000
H        +6.51172000        -0.39794000        +1.91994000
H        +4.83380000        -0.88531000        +1.93086000
H        +5.77116000        -0.94728000        +3.40415000
H        +2.50756000        +2.67212000        +2.79574000
H        +3.40981000        +3.33018000        +4.07037000
H        +4.07122000        +1.11496000        +4.71096000
H        +3.12905000        +0.45045000        +3.48052000
$end

$rem
JOBTYPE                   SP
METHOD                    B3LYP
DFT_D                     d3_op
BASIS                     6-311++G(d,p)
SYMMETRY                  False
THRESH                    12
SCF_CONVERGENCE           8
MAX_SUB_FILE_NUM          128
MEM_STATIC                400
MEM_TOTAL                 4000
$end
