$molecule
0  1
C        +0.20553000        +1.04146000        +0.58269000
C        +0.65000000        -0.38925000        +1.00740000
C        +1.32948000        +1.41743000        -0.40725000
C        +2.62919000        +1.72756000        +0.36622000
C        +3.06783000        +0.29650000        +0.79479000
C        +1.94651000        -0.57906000        +0.17708000
O        +1.63056000        +0.15702000        -1.03120000
H        +3.36767000        +2.18673000        -0.29348000
H        +2.46319000        +2.40269000        +1.20873000
H        +4.03298000        +0.02999000        +0.35944000
H        +3.13919000        +0.17160000        +1.87760000
H        +1.05575000        +2.14422000        -1.17046000
C        +2.32428000        -2.00466000        -0.15206000
H        +3.19961000        -2.02906000        -0.80581000
H        +1.50021000        -2.51513000        -0.65630000
H        +2.56254000        -2.55434000        +0.76296000
H        -0.76025000        +1.02051000        +0.07473000
H        +0.13481000        +1.74083000        +1.41846000
H        +0.82947000        -0.48542000        +2.08050000
H        -0.09122000        -1.13848000        +0.72072000
@C        +0.22194000        +2.33191000        +4.89366000
@C        +0.66641000        +0.90120000        +5.31837000
@C        +1.34589000        +2.70788000        +3.90372000
@C        +2.64560000        +3.01801000        +4.67719000
@C        +3.08424000        +1.58695000        +5.10576000
@C        +1.96292000        +0.71139000        +4.48805000
@O        +1.64697000        +1.44747000        +3.27977000
@H        +3.38408000        +3.47718000        +4.01749000
@H        +2.47960000        +3.69314000        +5.51970000
@H        +4.04939000        +1.32044000        +4.67041000
@H        +3.15560000        +1.46205000        +6.18857000
@H        +1.07216000        +3.43467000        +3.14051000
@C        +2.34069000        -0.71421000        +4.15891000
@H        +3.21602000        -0.73861000        +3.50516000
@H        +1.51662000        -1.22468000        +3.65467000
@H        +2.57895000        -1.26389000        +5.07393000
@H        -0.74384000        +2.31096000        +4.38570000
@H        +0.15122000        +3.03128000        +5.72943000
@H        +0.84588000        +0.80503000        +6.39147000
@H        -0.07481000        +0.15197000        +5.03169000
$end

$rem
JOBTYPE                   SP
METHOD                    B3LYP
DFT_D                     d3_op
BASIS                     6-311++G(d,p)
SYMMETRY                  False
THRESH                    12
SCF_CONVERGENCE           8
MAX_SUB_FILE_NUM          128
MEM_STATIC                400
MEM_TOTAL                 4000
$end
