$molecule
0  1
--
0  1
C        -0.54444000        -0.68370000        -0.06689000
C        -0.55709000        +0.71878000        +0.05493000
C        -1.74320000        -1.41616000        -0.12552000
C        -2.93952000        -0.70056000        -0.05285000
C        -2.95313000        +0.68255000        +0.06934000
C        -1.77161000        +1.42404000        +0.12810000
H        -3.90354000        +1.20325000        +0.11710000
H        -3.87892000        -1.24211000        -0.08988000
C        -1.83960000        +2.92746000        +0.24839000
H        -1.24214000        +3.42352000        -0.52065000
H        -1.45503000        +3.26427000        +1.21284000
H        -2.87211000        +3.26623000        +0.14638000
H        -1.73878000        -2.44393000        -0.21875000
H        +0.35825000        -1.18166000        -0.11386000
H        +0.33551000        +1.23549000        +0.09097000
--
0  1
C        -0.69824000        -1.00544000        +4.41896000
C        -0.71089000        +0.39704000        +4.54078000
C        -1.89700000        -1.73790000        +4.36033000
C        -3.09332000        -1.02230000        +4.43300000
C        -3.10693000        +0.36081000        +4.55519000
C        -1.92541000        +1.10230000        +4.61395000
H        -4.05734000        +0.88151000        +4.60295000
H        -4.03272000        -1.56385000        +4.39597000
C        -1.99340000        +2.60572000        +4.73424000
H        -1.39594000        +3.10178000        +3.96520000
H        -1.60883000        +2.94253000        +5.69869000
H        -3.02591000        +2.94449000        +4.63223000
H        -1.89258000        -2.76567000        +4.26710000
H        +0.20445000        -1.50340000        +4.37199000
H        +0.18171000        +0.91375000        +4.57682000
$end

$rem
JOBTYPE                   SP
METHOD                    B3LYP
DFT_D                     d3_op
BASIS                     6-311++G(d,p)
SYMMETRY                  False
THRESH                    12
SCF_CONVERGENCE           8
MAX_SUB_FILE_NUM          128
MEM_STATIC                400
MEM_TOTAL                 4000
$end
