$molecule
0  1
C        -0.55335000        -0.66344000        -0.04955000
C        -0.58369000        +0.72363000        +0.07143000
C        -1.74416000        -1.38805000        -0.12104000
C        -2.96100000        -0.71253000        -0.06974000
C        -2.98560000        +0.67733000        +0.05133000
C        -1.80096000        +1.41593000        +0.12202000
H        -3.93869000        +1.19496000        +0.09042000
H        -3.89285000        -1.26490000        -0.12448000
C        -1.82561000        +2.92062000        +0.24749000
H        -1.30124000        +3.39464000        -0.58804000
H        -1.33421000        +3.24931000        +1.16844000
H        -2.84892000        +3.30103000        +0.25949000
H        -1.72216000        -2.46788000        -0.21620000
H        +0.39889000        -1.18111000        -0.08841000
H        +0.34820000        +1.27792000        +0.12648000
@C        -0.58314000        -1.05478000        +4.43330000
@C        -0.61348000        +0.33229000        +4.55428000
@C        -1.77395000        -1.77939000        +4.36181000
@C        -2.99079000        -1.10387000        +4.41311000
@C        -3.01539000        +0.28599000        +4.53418000
@C        -1.83075000        +1.02459000        +4.60487000
@H        -3.96848000        +0.80362000        +4.57327000
@H        -3.92264000        -1.65624000        +4.35837000
@C        -1.85540000        +2.52928000        +4.73034000
@H        -1.33103000        +3.00330000        +3.89481000
@H        -1.36400000        +2.85797000        +5.65129000
@H        -2.87871000        +2.90969000        +4.74234000
@H        -1.75195000        -2.85922000        +4.26665000
@H        +0.36910000        -1.57245000        +4.39444000
@H        +0.31841000        +0.88658000        +4.60933000
$end

$rem
JOBTYPE                   SP
METHOD                    B3LYP
DFT_D                     d3_op
BASIS                     6-311++G(d,p)
SYMMETRY                  False
THRESH                    12
SCF_CONVERGENCE           8
MAX_SUB_FILE_NUM          128
MEM_STATIC                400
MEM_TOTAL                 4000
$end
