$molecule
0  1
C        -0.54383000        -1.10607000        +4.40373000
C        -0.55780000        +0.27869000        +4.53725000
C        -1.73562000        -1.84041000        +4.34665000
C        -2.93757000        -1.13439000        +4.42306000
C        -2.95173000        +0.25426000        +4.55636000
C        -1.76442000        +0.98636000        +4.61369000
H        -3.90307000        +0.77390000        +4.61511000
H        -3.87793000        -1.67525000        +4.37895000
C        -1.77475000        +2.49159000        +4.72866000
C        -1.71661000        -3.34640000        +4.23277000
H        -0.99089000        -3.68236000        +3.48682000
H        -2.69641000        -3.73651000        +3.94812000
H        -1.44142000        -3.80991000        +5.18642000
H        -1.49935000        +2.96013000        +3.77770000
H        -1.06148000        +2.83940000        +5.48125000
H        -2.76394000        +2.86294000        +5.00529000
H        +0.40672000        -1.62759000        +4.34402000
H        +0.38247000        +0.81984000        +4.58149000
@C        -0.58454000        -0.67556000        -0.07544000
@C        -0.59851000        +0.70920000        +0.05808000
@C        -1.77633000        -1.40990000        -0.13252000
@C        -2.97828000        -0.70388000        -0.05611000
@C        -2.99244000        +0.68477000        +0.07719000
@C        -1.80513000        +1.41687000        +0.13452000
@H        -3.94378000        +1.20441000        +0.13594000
@H        -3.91864000        -1.24474000        -0.10022000
@C        -1.81546000        +2.92210000        +0.24949000
@C        -1.75732000        -2.91589000        -0.24640000
@H        -1.03160000        -3.25185000        -0.99235000
@H        -2.73712000        -3.30600000        -0.53105000
@H        -1.48213000        -3.37940000        +0.70725000
@H        -1.54006000        +3.39064000        -0.70147000
@H        -1.10219000        +3.26991000        +1.00208000
@H        -2.80465000        +3.29345000        +0.52612000
@H        +0.36601000        -1.19708000        -0.13515000
@H        +0.34176000        +1.25035000        +0.10232000
$end

$rem
JOBTYPE                   SP
METHOD                    B3LYP
DFT_D                     d3_op
BASIS                     6-311++G(d,p)
SYMMETRY                  False
THRESH                    12
SCF_CONVERGENCE           8
MAX_SUB_FILE_NUM          128
MEM_STATIC                400
MEM_TOTAL                 4000
$end
