$molecule
0  1
C        -2.31204000        +0.27441000        +5.37348000
C        -2.32469000        +1.67689000        +5.49530000
C        -3.51080000        -0.45805000        +5.31485000
C        -4.70712000        +0.25755000        +5.38752000
C        -4.72073000        +1.64066000        +5.50971000
C        -3.53921000        +2.38215000        +5.56847000
H        -5.67114000        +2.16136000        +5.55747000
H        -5.64652000        -0.28400000        +5.35049000
C        -3.60720000        +3.88557000        +5.68876000
C        -3.54863000        -1.96415000        +5.19447000
H        -3.16512000        -2.29412000        +4.22714000
H        -4.57332000        -2.32364000        +5.30410000
H        -2.93718000        -2.44966000        +5.95963000
H        -3.00974000        +4.38163000        +4.91972000
H        -3.22263000        +4.22238000        +6.65321000
H        -4.63971000        +4.22434000        +5.58675000
H        -1.40935000        -0.22355000        +5.32651000
H        -1.43209000        +2.19360000        +5.53134000
@C        -0.54444000        -0.68370000        -0.06689000
@C        -0.55709000        +0.71878000        +0.05493000
@C        -1.74320000        -1.41616000        -0.12552000
@C        -2.93952000        -0.70056000        -0.05285000
@C        -2.95313000        +0.68255000        +0.06934000
@C        -1.77161000        +1.42404000        +0.12810000
@H        -3.90354000        +1.20325000        +0.11710000
@H        -3.87892000        -1.24211000        -0.08988000
@C        -1.83960000        +2.92746000        +0.24839000
@C        -1.78103000        -2.92226000        -0.24590000
@H        -1.39752000        -3.25223000        -1.21323000
@H        -2.80572000        -3.28175000        -0.13627000
@H        -1.16958000        -3.40777000        +0.51926000
@H        -1.24214000        +3.42352000        -0.52065000
@H        -1.45503000        +3.26427000        +1.21284000
@H        -2.87211000        +3.26623000        +0.14638000
@H        +0.35825000        -1.18166000        -0.11386000
@H        +0.33551000        +1.23549000        +0.09097000
$end

$rem
JOBTYPE                   SP
METHOD                    B3LYP
DFT_D                     d3_op
BASIS                     6-311++G(d,p)
SYMMETRY                  False
THRESH                    12
SCF_CONVERGENCE           8
MAX_SUB_FILE_NUM          128
MEM_STATIC                400
MEM_TOTAL                 4000
$end
