$molecule
0  1
--
0  1
C        +0.22270000        +1.04488000        +0.58595000
C        +0.62626000        -0.41353000        +0.99871000
C        +1.33008000        +1.39974000        -0.43491000
C        +2.63070000        +1.71700000        +0.32855000
C        +3.04336000        +0.29351000        +0.80300000
C        +1.94423000        -0.59299000        +0.15262000
O        +1.62840000        +0.13663000        -1.04376000
H        +3.37234000        +2.13782000        -0.35195000
H        +2.48236000        +2.42488000        +1.14651000
H        +4.02182000        +0.00994000        +0.41161000
H        +3.07359000        +0.18738000        +1.88928000
H        +1.03270000        +2.19943000        -1.08064000
H        +2.24339000        -1.61496000        +0.04786000
H        +0.81693000        -0.48905000        +2.04887000
H        -0.12524000        -1.15356000        +0.81843000
H        -0.74673000        +1.06811000        +0.13365000
H        +0.15552000        +1.72617000        +1.40828000
--
0  1
C        +2.93169000        +2.62194000        +3.07075000
C        +3.33525000        +1.16353000        +3.48351000
C        +4.03907000        +2.97680000        +2.04989000
C        +5.33969000        +3.29406000        +2.81335000
C        +5.75235000        +1.87057000        +3.28780000
C        +4.65322000        +0.98407000        +2.63742000
O        +4.33739000        +1.71369000        +1.44104000
H        +6.08133000        +3.71488000        +2.13285000
H        +5.19135000        +4.00194000        +3.63131000
H        +6.73081000        +1.58700000        +2.89641000
H        +5.78258000        +1.76444000        +4.37408000
H        +3.74169000        +3.77649000        +1.40416000
H        +4.95238000        -0.03790000        +2.53266000
H        +3.52592000        +1.08801000        +4.53367000
H        +2.58375000        +0.42350000        +3.30323000
H        +1.96226000        +2.64517000        +2.61845000
H        +2.86451000        +3.30323000        +3.89308000
$end

$rem
JOBTYPE                   SP
METHOD                    B3LYP
DFT_D                     d3_op
BASIS                     6-311++G(d,p)
SYMMETRY                  False
THRESH                    12
SCF_CONVERGENCE           8
MAX_SUB_FILE_NUM          128
MEM_STATIC                400
MEM_TOTAL                 4000
$end
