$molecule
0  1
C        +3.98321000        +2.89841000        +3.66215000
C        +4.38677000        +1.44000000        +4.07491000
C        +5.09059000        +3.25327000        +2.64129000
C        +6.39121000        +3.57053000        +3.40475000
C        +6.80387000        +2.14704000        +3.87920000
C        +5.70474000        +1.26054000        +3.22882000
O        +5.38891000        +1.99016000        +2.03244000
H        +7.13285000        +3.99135000        +2.72425000
H        +6.24287000        +4.27841000        +4.22271000
H        +7.78233000        +1.86347000        +3.48781000
H        +6.83410000        +2.04091000        +4.96548000
H        +4.79321000        +4.05296000        +1.99556000
C        +6.11501000        -0.15914000        +2.90808000
H        +7.01794000        -0.14842000        +2.33405000
H        +5.34002000        -0.63579000        +2.34497000
H        +6.27738000        -0.69776000        +3.81826000
H        +3.01378000        +2.92164000        +3.20985000
H        +3.91603000        +3.57970000        +4.48448000
H        +4.57744000        +1.36448000        +5.12507000
H        +3.63527000        +0.69997000        +3.89463000
@C        +0.22270000        +1.04488000        +0.58595000
@C        +0.62626000        -0.41353000        +0.99871000
@C        +1.33008000        +1.39974000        -0.43491000
@C        +2.63070000        +1.71700000        +0.32855000
@C        +3.04336000        +0.29351000        +0.80300000
@C        +1.94423000        -0.59299000        +0.15262000
@O        +1.62840000        +0.13663000        -1.04376000
@H        +3.37234000        +2.13782000        -0.35195000
@H        +2.48236000        +2.42488000        +1.14651000
@H        +4.02182000        +0.00994000        +0.41161000
@H        +3.07359000        +0.18738000        +1.88928000
@H        +1.03270000        +2.19943000        -1.08064000
@C        +2.35450000        -2.01267000        -0.16812000
@H        +3.25743000        -2.00195000        -0.74215000
@H        +1.57951000        -2.48932000        -0.73123000
@H        +2.51687000        -2.55129000        +0.74206000
@H        -0.74673000        +1.06811000        +0.13365000
@H        +0.15552000        +1.72617000        +1.40828000
@H        +0.81693000        -0.48905000        +2.04887000
@H        -0.12524000        -1.15356000        +0.81843000
$end

$rem
JOBTYPE                   SP
METHOD                    B3LYP
DFT_D                     d3_op
BASIS                     6-311++G(d,p)
SYMMETRY                  False
THRESH                    12
SCF_CONVERGENCE           8
MAX_SUB_FILE_NUM          128
MEM_STATIC                400
MEM_TOTAL                 4000
$end
