$molecule
0  1
--
0  1
C        +0.22270000        +1.04488000        +0.58595000
C        +0.62626000        -0.41353000        +0.99871000
C        +1.33008000        +1.39974000        -0.43491000
C        +2.63070000        +1.71700000        +0.32855000
C        +3.04336000        +0.29351000        +0.80300000
C        +1.94423000        -0.59299000        +0.15262000
O        +1.62840000        +0.13663000        -1.04376000
H        +3.37234000        +2.13782000        -0.35195000
H        +2.48236000        +2.42488000        +1.14651000
H        +4.02182000        +0.00994000        +0.41161000
H        +3.07359000        +0.18738000        +1.88928000
H        +1.03270000        +2.19943000        -1.08064000
C        +2.35450000        -2.01267000        -0.16812000
H        +3.25743000        -2.00195000        -0.74215000
H        +1.57951000        -2.48932000        -0.73123000
H        +2.51687000        -2.55129000        +0.74206000
H        -0.74673000        +1.06811000        +0.13365000
H        +0.15552000        +1.72617000        +1.40828000
H        +0.81693000        -0.48905000        +2.04887000
H        -0.12524000        -1.15356000        +0.81843000
--
0  1
C        +3.11540000        +2.47067000        +2.95226000
C        +3.51896000        +1.01226000        +3.36502000
C        +4.22278000        +2.82553000        +1.93140000
C        +5.52340000        +3.14279000        +2.69486000
C        +5.93606000        +1.71930000        +3.16931000
C        +4.83693000        +0.83280000        +2.51893000
O        +4.52110000        +1.56242000        +1.32255000
H        +6.26504000        +3.56361000        +2.01436000
H        +5.37506000        +3.85067000        +3.51282000
H        +6.91452000        +1.43573000        +2.77792000
H        +5.96629000        +1.61317000        +4.25559000
H        +3.92540000        +3.62522000        +1.28567000
C        +5.24720000        -0.58688000        +2.19819000
H        +6.15013000        -0.57616000        +1.62416000
H        +4.47221000        -1.06353000        +1.63508000
H        +5.40957000        -1.12550000        +3.10837000
H        +2.14597000        +2.49390000        +2.49996000
H        +3.04822000        +3.15196000        +3.77459000
H        +3.70963000        +0.93674000        +4.41518000
H        +2.76746000        +0.27223000        +3.18474000
$end

$rem
JOBTYPE                   SP
METHOD                    B3LYP
DFT_D                     d3_op
BASIS                     6-311++G(d,p)
SYMMETRY                  False
THRESH                    12
SCF_CONVERGENCE           8
MAX_SUB_FILE_NUM          128
MEM_STATIC                400
MEM_TOTAL                 4000
$end
