$molecule
0  1
C        -0.57983000        -1.01129000        +3.93521000
C        -0.61017000        +0.37578000        +4.05619000
C        -1.77064000        -1.73590000        +3.86372000
C        -2.98748000        -1.06038000        +3.91502000
C        -3.01208000        +0.32948000        +4.03609000
C        -1.82744000        +1.06808000        +4.10678000
H        -3.96517000        +0.84711000        +4.07518000
H        -3.91933000        -1.61275000        +3.86028000
C        -1.85209000        +2.57277000        +4.23225000
H        -1.32772000        +3.04679000        +3.39672000
H        -1.36069000        +2.90146000        +5.15320000
H        -2.87540000        +2.95318000        +4.24425000
H        -1.74864000        -2.81573000        +3.76856000
H        +0.37241000        -1.52896000        +3.89635000
H        +0.32172000        +0.93007000        +4.11124000
@C        -0.55335000        -0.66344000        -0.04955000
@C        -0.58369000        +0.72363000        +0.07143000
@C        -1.74416000        -1.38805000        -0.12104000
@C        -2.96100000        -0.71253000        -0.06974000
@C        -2.98560000        +0.67733000        +0.05133000
@C        -1.80096000        +1.41593000        +0.12202000
@H        -3.93869000        +1.19496000        +0.09042000
@H        -3.89285000        -1.26490000        -0.12448000
@C        -1.82561000        +2.92062000        +0.24749000
@H        -1.30124000        +3.39464000        -0.58804000
@H        -1.33421000        +3.24931000        +1.16844000
@H        -2.84892000        +3.30103000        +0.25949000
@H        -1.72216000        -2.46788000        -0.21620000
@H        +0.39889000        -1.18111000        -0.08841000
@H        +0.34820000        +1.27792000        +0.12648000
$end

$rem
JOBTYPE                   SP
METHOD                    B3LYP
DFT_D                     d3_op
BASIS                     6-311++G(d,p)
SYMMETRY                  False
THRESH                    12
SCF_CONVERGENCE           8
MAX_SUB_FILE_NUM          128
MEM_STATIC                400
MEM_TOTAL                 4000
$end
