$molecule
0  1
C        -0.54444000        -0.68370000        -0.06689000
C        -0.55709000        +0.71878000        +0.05493000
C        -1.74320000        -1.41616000        -0.12552000
C        -2.93952000        -0.70056000        -0.05285000
C        -2.95313000        +0.68255000        +0.06934000
C        -1.77161000        +1.42404000        +0.12810000
H        -3.90354000        +1.20325000        +0.11710000
H        -3.87892000        -1.24211000        -0.08988000
C        -1.83960000        +2.92746000        +0.24839000
C        -1.78103000        -2.92226000        -0.24590000
H        -1.39752000        -3.25223000        -1.21323000
H        -2.80572000        -3.28175000        -0.13627000
H        -1.16958000        -3.40777000        +0.51926000
H        -1.24214000        +3.42352000        -0.52065000
H        -1.45503000        +3.26427000        +1.21284000
H        -2.87211000        +3.26623000        +0.14638000
H        +0.35825000        -1.18166000        -0.11386000
H        +0.33551000        +1.23549000        +0.09097000
@C        -1.76348000        -0.02293000        +3.68509000
@C        -1.77613000        +1.37955000        +3.80691000
@C        -2.96224000        -0.75539000        +3.62646000
@C        -4.15856000        -0.03979000        +3.69913000
@C        -4.17217000        +1.34332000        +3.82132000
@C        -2.99065000        +2.08481000        +3.88008000
@H        -5.12258000        +1.86402000        +3.86908000
@H        -5.09796000        -0.58134000        +3.66210000
@C        -3.05864000        +3.58823000        +4.00037000
@C        -3.00007000        -2.26149000        +3.50608000
@H        -2.61656000        -2.59146000        +2.53875000
@H        -4.02476000        -2.62098000        +3.61571000
@H        -2.38862000        -2.74700000        +4.27124000
@H        -2.46118000        +4.08429000        +3.23133000
@H        -2.67407000        +3.92504000        +4.96482000
@H        -4.09115000        +3.92700000        +3.89836000
@H        -0.86079000        -0.52089000        +3.63812000
@H        -0.88353000        +1.89626000        +3.84295000
$end

$rem
JOBTYPE                   SP
METHOD                    B3LYP
DFT_D                     d3_op
BASIS                     6-311++G(d,p)
SYMMETRY                  False
THRESH                    12
SCF_CONVERGENCE           8
MAX_SUB_FILE_NUM          128
MEM_STATIC                400
MEM_TOTAL                 4000
$end
