$molecule
0  1
C        -0.54444000        -0.68370000        -0.06689000
C        -0.55709000        +0.71878000        +0.05493000
C        -1.74320000        -1.41616000        -0.12552000
C        -2.93952000        -0.70056000        -0.05285000
C        -2.95313000        +0.68255000        +0.06934000
C        -1.77161000        +1.42404000        +0.12810000
H        -3.90354000        +1.20325000        +0.11710000
H        -3.87892000        -1.24211000        -0.08988000
C        -1.83960000        +2.92746000        +0.24839000
C        -1.78103000        -2.92226000        -0.24590000
H        -1.39752000        -3.25223000        -1.21323000
H        -2.80572000        -3.28175000        -0.13627000
H        -1.16958000        -3.40777000        +0.51926000
H        -1.24214000        +3.42352000        -0.52065000
H        -1.45503000        +3.26427000        +1.21284000
H        -2.87211000        +3.26623000        +0.14638000
H        +0.35825000        -1.18166000        -0.11386000
H        +0.33551000        +1.23549000        +0.09097000
@C        -2.12919000        +0.17530000        +4.81068000
@C        -2.14184000        +1.57778000        +4.93250000
@C        -3.32795000        -0.55716000        +4.75205000
@C        -4.52427000        +0.15844000        +4.82472000
@C        -4.53788000        +1.54155000        +4.94691000
@C        -3.35636000        +2.28304000        +5.00567000
@H        -5.48829000        +2.06225000        +4.99467000
@H        -5.46367000        -0.38311000        +4.78769000
@C        -3.42435000        +3.78646000        +5.12596000
@C        -3.36578000        -2.06326000        +4.63167000
@H        -2.98227000        -2.39323000        +3.66434000
@H        -4.39047000        -2.42275000        +4.74130000
@H        -2.75433000        -2.54877000        +5.39683000
@H        -2.82689000        +4.28252000        +4.35692000
@H        -3.03978000        +4.12327000        +6.09041000
@H        -4.45686000        +4.12523000        +5.02395000
@H        -1.22650000        -0.32266000        +4.76371000
@H        -1.24924000        +2.09449000        +4.96854000
$end

$rem
JOBTYPE                   SP
METHOD                    B3LYP
DFT_D                     d3_op
BASIS                     6-311++G(d,p)
SYMMETRY                  False
THRESH                    12
SCF_CONVERGENCE           8
MAX_SUB_FILE_NUM          128
MEM_STATIC                400
MEM_TOTAL                 4000
$end
