memory 750000 mb

molecule mol {
0 1
C         -0.26977        1.55258       -0.01368
O         -0.87738        2.59778        0.04803
O          1.07462        1.50982       -0.11135
C          1.75431        2.77291       -0.18321
H          1.61142        3.33499        0.74113
H          1.38006        3.35869       -1.02345
H          2.80404        2.52639       -0.32584
--
0 1
C          1.41158       -0.97308       -0.30650
O          1.97797       -1.03529       -1.36832
O          2.02902       -1.03435        0.88757
C          3.46675       -1.07995        0.84648
H          3.80747       -1.95782        0.29548
H          3.85872       -0.18136        0.36704
H          3.78468       -1.13024        1.88535
--
0 1
C         -3.24074        1.21513        0.26800
H         -4.26187        0.84040        0.36232
H         -3.18931        1.88550       -0.59124
H         -3.00859        1.82547        1.14246
H         -0.04368       -3.11179       -0.26601
C         -0.08472       -0.96996       -0.13685
C         -0.87994        0.18868       -0.00323
C         -0.66973       -2.23481       -0.15143
C         -2.04631       -2.36724       -0.02220
C         -2.83536       -1.23334        0.11590
C         -2.28665        0.05330        0.12432
H         -3.90949       -1.33978        0.21788
H         -2.50180       -3.35118       -0.03020

symmetry c1
no_reorient
no_com
}

set {
basis jun-cc-pvdz
scf_type df
guess sad
freeze_core true
}

energy('fisapt0')
