memory 750000 mb

molecule mol {
0 1
C          0.04446        1.39608        0.13019
O          0.01640        2.22556        1.00541
O          0.82687        1.48592       -0.96546
C          1.76059        2.57977       -0.98292
H          1.23523        3.53485       -0.94127
H          2.30426        2.48108       -1.91980
H          2.43992        2.50648       -0.13176
--
0 1
C          1.23946       -1.35094       -0.09406
O          1.78582       -2.22329       -0.72653
O          1.88880       -0.52458        0.75091
C          3.31781       -0.67353        0.80721
H          3.58348       -1.69246        1.09127
H          3.65198        0.03606        1.56070
H          3.76001       -0.44462       -0.16413
--
0 1
C         -2.87124        1.65557        0.30644
H         -3.95623        1.55682        0.24662
H         -2.55394        2.35968       -0.46800
H         -2.61155        2.10128        1.26820
H         -0.58726       -3.20027       -0.36033
C         -0.23514       -1.10527       -0.09387
C         -0.81117        0.16699        0.07137
C         -1.05069       -2.23148       -0.22329
C         -2.43187       -2.09829       -0.16291
C         -2.99836       -0.84057        0.01980
C         -2.20955        0.30855        0.13634
H         -4.07756       -0.74008        0.06469
H         -3.06708       -2.97186       -0.25534

symmetry c1
no_reorient
no_com
}

set {
basis jun-cc-pvdz
scf_type df
guess sad
freeze_core true
}

energy('fisapt0')
