memory 750000 mb

molecule mol {
0 1
C         -3.20182       -0.67174       -0.26953
H         -3.31861       -0.00121       -1.12196
H         -3.52616       -0.11691        0.61239
H         -3.86887       -1.52480       -0.40531
--
0 1
C         -0.68726        1.17083        0.08062
O          0.29457        1.87206        0.18620
O         -1.93038        1.68746        0.01777
C         -2.01773        3.12216        0.09240
H         -1.48338        3.58005       -0.74108
H         -1.59357        3.48050        1.03120
H         -3.08063        3.34773        0.03868
--
0 1
H          1.78580       -2.71658        0.22779
C          1.90079       -0.10879        0.32602
O          2.43672        0.06267        1.39176
O          2.41599        0.25937       -0.85897
C          3.59610        1.08115       -0.79551
H          3.36459        2.01770       -0.28574
H          3.87626        1.26547       -1.83023
H          4.39689        0.56436       -0.26451
C          0.63715       -0.90790        0.13951
C         -0.64081       -0.32252        0.01904
C          0.79527       -2.29069        0.12326
C         -0.31571       -3.11119       -0.02540
C         -1.57722       -2.54445       -0.15247
C         -1.77714       -1.15931       -0.12965
H         -2.44047       -3.19028       -0.26853
H         -0.20021       -4.18910       -0.04270

symmetry c1
no_reorient
no_com
}

set {
basis jun-cc-pvdz
scf_type df
guess sad
freeze_core true
}

energy('fisapt0')
