$molecule
0  1
C        +0.24598000        +2.36274000        +4.78993000
C        +0.68179000        +0.93116000        +5.23372000
C        +1.36862000        +2.71850000        +3.79092000
C        +2.67384000        +3.03140000        +4.55521000
C        +3.11204000        +1.60054000        +4.99890000
C        +1.97239000        +0.74354000        +4.40590000
O        +1.66075000        +1.44352000        +3.18455000
H        +3.41131000        +3.48314000        +3.88951000
H        +2.51265000        +3.71259000        +5.39360000
H        +4.07009000        +1.32488000        +4.55533000
H        +3.19500000        +1.49174000        +6.08258000
H        +1.09692000        +3.43318000        +3.01610000
H        +2.23380000        -0.28731000        +4.17392000
H        +0.85898000        +0.84848000        +6.30825000
H        -0.06398000        +0.18476000        +4.95456000
H        -0.72262000        +2.34352000        +4.28759000
H        +0.18603000        +3.07138000        +5.61854000
@C        +0.20238000        +1.04766000        +0.59128000
@C        +0.63819000        -0.38392000        +1.03507000
@C        +1.32502000        +1.40342000        -0.40773000
@C        +2.63024000        +1.71632000        +0.35656000
@C        +3.06844000        +0.28546000        +0.80025000
@C        +1.92879000        -0.57154000        +0.20725000
@O        +1.61715000        +0.12844000        -1.01410000
@H        +3.36771000        +2.16806000        -0.30914000
@H        +2.46905000        +2.39751000        +1.19495000
@H        +4.02649000        +0.00980000        +0.35668000
@H        +3.15140000        +0.17666000        +1.88393000
@H        +1.05332000        +2.11810000        -1.18255000
@H        +2.19020000        -1.60239000        -0.02473000
@H        +0.81538000        -0.46660000        +2.10960000
@H        -0.10758000        -1.13032000        +0.75591000
@H        -0.76622000        +1.02844000        +0.08894000
@H        +0.14243000        +1.75630000        +1.41989000
$end

$rem
JOBTYPE                   SP
METHOD                    B3LYP
DFT_D                     d3_op
BASIS                     6-311++G(d,p)
SYMMETRY                  False
THRESH                    12
SCF_CONVERGENCE           8
MAX_SUB_FILE_NUM          128
MEM_STATIC                400
MEM_TOTAL                 4000
$end
