$molecule
0  1
C        +3.40467000        +2.61325000        +3.18889000
C        +3.80823000        +1.15484000        +3.60165000
C        +4.51205000        +2.96811000        +2.16803000
C        +5.81267000        +3.28537000        +2.93149000
C        +6.22533000        +1.86188000        +3.40594000
C        +5.12620000        +0.97538000        +2.75556000
O        +4.81037000        +1.70500000        +1.55918000
H        +6.55431000        +3.70619000        +2.25099000
H        +5.66433000        +3.99325000        +3.74945000
H        +7.20379000        +1.57831000        +3.01455000
H        +6.25556000        +1.75575000        +4.49222000
H        +4.21467000        +3.76780000        +1.52230000
C        +5.53647000        -0.44430000        +2.43482000
H        +6.43940000        -0.43358000        +1.86079000
H        +4.76148000        -0.92095000        +1.87171000
H        +5.69884000        -0.98292000        +3.34500000
H        +2.43524000        +2.63648000        +2.73659000
H        +3.33749000        +3.29454000        +4.01122000
H        +3.99890000        +1.07932000        +4.65181000
H        +3.05673000        +0.41481000        +3.42137000
@C        +0.22270000        +1.04488000        +0.58595000
@C        +0.62626000        -0.41353000        +0.99871000
@C        +1.33008000        +1.39974000        -0.43491000
@C        +2.63070000        +1.71700000        +0.32855000
@C        +3.04336000        +0.29351000        +0.80300000
@C        +1.94423000        -0.59299000        +0.15262000
@O        +1.62840000        +0.13663000        -1.04376000
@H        +3.37234000        +2.13782000        -0.35195000
@H        +2.48236000        +2.42488000        +1.14651000
@H        +4.02182000        +0.00994000        +0.41161000
@H        +3.07359000        +0.18738000        +1.88928000
@H        +1.03270000        +2.19943000        -1.08064000
@C        +2.35450000        -2.01267000        -0.16812000
@H        +3.25743000        -2.00195000        -0.74215000
@H        +1.57951000        -2.48932000        -0.73123000
@H        +2.51687000        -2.55129000        +0.74206000
@H        -0.74673000        +1.06811000        +0.13365000
@H        +0.15552000        +1.72617000        +1.40828000
@H        +0.81693000        -0.48905000        +2.04887000
@H        -0.12524000        -1.15356000        +0.81843000
$end

$rem
JOBTYPE                   SP
METHOD                    B3LYP
DFT_D                     d3_op
BASIS                     6-311++G(d,p)
SYMMETRY                  False
THRESH                    12
SCF_CONVERGENCE           8
MAX_SUB_FILE_NUM          128
MEM_STATIC                400
MEM_TOTAL                 4000
$end
