$molecule
0  1
C        -0.54444000        -0.68370000        -0.06689000
C        -0.55709000        +0.71878000        +0.05493000
C        -1.74320000        -1.41616000        -0.12552000
C        -2.93952000        -0.70056000        -0.05285000
C        -2.95313000        +0.68255000        +0.06934000
C        -1.77161000        +1.42404000        +0.12810000
H        -3.90354000        +1.20325000        +0.11710000
H        -3.87892000        -1.24211000        -0.08988000
C        -1.83960000        +2.92746000        +0.24839000
H        -1.24214000        +3.42352000        -0.52065000
H        -1.45503000        +3.26427000        +1.21284000
H        -2.87211000        +3.26623000        +0.14638000
H        -1.73878000        -2.44393000        -0.21875000
H        +0.35825000        -1.18166000        -0.11386000
H        +0.33551000        +1.23549000        +0.09097000
@C        -0.51416000        -1.06734000        +4.31625000
@C        -0.52681000        +0.33514000        +4.43807000
@C        -1.71292000        -1.79980000        +4.25762000
@C        -2.90924000        -1.08420000        +4.33029000
@C        -2.92285000        +0.29891000        +4.45248000
@C        -1.74133000        +1.04040000        +4.51124000
@H        -3.87326000        +0.81961000        +4.50024000
@H        -3.84864000        -1.62575000        +4.29326000
@C        -1.80932000        +2.54382000        +4.63153000
@H        -1.21186000        +3.03988000        +3.86249000
@H        -1.42475000        +2.88063000        +5.59598000
@H        -2.84183000        +2.88259000        +4.52952000
@H        -1.70850000        -2.82757000        +4.16439000
@H        +0.38853000        -1.56530000        +4.26928000
@H        +0.36579000        +0.85185000        +4.47411000
$end

$rem
JOBTYPE                   SP
METHOD                    B3LYP
DFT_D                     d3_op
BASIS                     6-311++G(d,p)
SYMMETRY                  False
THRESH                    12
SCF_CONVERGENCE           8
MAX_SUB_FILE_NUM          128
MEM_STATIC                400
MEM_TOTAL                 4000
$end
