$molecule
0  1
C        -2.28157000        +0.25789000        +5.27968000
C        -2.29422000        +1.66037000        +5.40150000
C        -3.48033000        -0.47457000        +5.22105000
C        -4.67665000        +0.24103000        +5.29372000
C        -4.69026000        +1.62414000        +5.41591000
C        -3.50874000        +2.36563000        +5.47467000
H        -5.64067000        +2.14484000        +5.46367000
H        -5.61605000        -0.30052000        +5.25669000
C        -3.57673000        +3.86905000        +5.59496000
C        -3.51816000        -1.98067000        +5.10067000
H        -3.13465000        -2.31064000        +4.13334000
H        -4.54285000        -2.34016000        +5.21030000
H        -2.90671000        -2.46618000        +5.86583000
H        -2.97927000        +4.36511000        +4.82592000
H        -3.19216000        +4.20586000        +6.55941000
H        -4.60924000        +4.20782000        +5.49295000
H        -1.37888000        -0.24007000        +5.23271000
H        -1.40162000        +2.17708000        +5.43754000
@C        -0.54444000        -0.68370000        -0.06689000
@C        -0.55709000        +0.71878000        +0.05493000
@C        -1.74320000        -1.41616000        -0.12552000
@C        -2.93952000        -0.70056000        -0.05285000
@C        -2.95313000        +0.68255000        +0.06934000
@C        -1.77161000        +1.42404000        +0.12810000
@H        -3.90354000        +1.20325000        +0.11710000
@H        -3.87892000        -1.24211000        -0.08988000
@C        -1.83960000        +2.92746000        +0.24839000
@C        -1.78103000        -2.92226000        -0.24590000
@H        -1.39752000        -3.25223000        -1.21323000
@H        -2.80572000        -3.28175000        -0.13627000
@H        -1.16958000        -3.40777000        +0.51926000
@H        -1.24214000        +3.42352000        -0.52065000
@H        -1.45503000        +3.26427000        +1.21284000
@H        -2.87211000        +3.26623000        +0.14638000
@H        +0.35825000        -1.18166000        -0.11386000
@H        +0.33551000        +1.23549000        +0.09097000
$end

$rem
JOBTYPE                   SP
METHOD                    B3LYP
DFT_D                     d3_op
BASIS                     6-311++G(d,p)
SYMMETRY                  False
THRESH                    12
SCF_CONVERGENCE           8
MAX_SUB_FILE_NUM          128
MEM_STATIC                400
MEM_TOTAL                 4000
$end
