$molecule
0  1
C        -1.88538000        +0.04314000        +4.06029000
C        -1.89803000        +1.44562000        +4.18211000
C        -3.08414000        -0.68932000        +4.00166000
C        -4.28046000        +0.02628000        +4.07433000
C        -4.29407000        +1.40939000        +4.19652000
C        -3.11255000        +2.15088000        +4.25528000
H        -5.24448000        +1.93009000        +4.24428000
H        -5.21986000        -0.51527000        +4.03730000
C        -3.18054000        +3.65430000        +4.37557000
C        -3.12197000        -2.19542000        +3.88128000
H        -2.73846000        -2.52539000        +2.91395000
H        -4.14666000        -2.55491000        +3.99091000
H        -2.51052000        -2.68093000        +4.64644000
H        -2.58308000        +4.15036000        +3.60653000
H        -2.79597000        +3.99111000        +5.34002000
H        -4.21305000        +3.99307000        +4.27356000
H        -0.98269000        -0.45482000        +4.01332000
H        -1.00543000        +1.96233000        +4.21815000
@C        -0.54444000        -0.68370000        -0.06689000
@C        -0.55709000        +0.71878000        +0.05493000
@C        -1.74320000        -1.41616000        -0.12552000
@C        -2.93952000        -0.70056000        -0.05285000
@C        -2.95313000        +0.68255000        +0.06934000
@C        -1.77161000        +1.42404000        +0.12810000
@H        -3.90354000        +1.20325000        +0.11710000
@H        -3.87892000        -1.24211000        -0.08988000
@C        -1.83960000        +2.92746000        +0.24839000
@C        -1.78103000        -2.92226000        -0.24590000
@H        -1.39752000        -3.25223000        -1.21323000
@H        -2.80572000        -3.28175000        -0.13627000
@H        -1.16958000        -3.40777000        +0.51926000
@H        -1.24214000        +3.42352000        -0.52065000
@H        -1.45503000        +3.26427000        +1.21284000
@H        -2.87211000        +3.26623000        +0.14638000
@H        +0.35825000        -1.18166000        -0.11386000
@H        +0.33551000        +1.23549000        +0.09097000
$end

$rem
JOBTYPE                   SP
METHOD                    B3LYP
DFT_D                     d3_op
BASIS                     6-311++G(d,p)
SYMMETRY                  False
THRESH                    12
SCF_CONVERGENCE           8
MAX_SUB_FILE_NUM          128
MEM_STATIC                400
MEM_TOTAL                 4000
$end
