memory 750000 mb

molecule mol {
0 1
H          0.52692        2.66149       -0.45716
--
0 1
C         -1.37019        0.85200       -0.17075
O         -1.67359        0.11515       -1.07440
O         -2.13335        1.89734        0.22345
C         -3.35128        2.10070       -0.51844
H         -3.13131        2.28038       -1.57184
H         -3.82220        2.97245       -0.06962
H         -3.99903        1.22707       -0.43181
--
0 1
C         -0.09292        0.81275        0.64111
C          0.68739       -0.54075        0.60387
C          0.95142        1.75590       -0.02848
C          2.14556        1.96475        0.92772
C          2.89769        0.61492        0.75433
C          1.96574       -0.15328       -0.22503
O          1.48433        0.92751       -1.05847
H         -0.32751        1.13183        1.65588
H          0.98485       -0.78601        1.62725
H          2.75369        2.80782        0.59695
H          1.82667        2.15972        1.95373
H          3.87084        0.76417        0.28330
H          3.05495        0.07903        1.69237
C          2.65427       -1.20325       -1.06634
H          3.52625       -0.75591       -1.54978
H          2.99155       -2.03223       -0.43918
H          1.98235       -1.60404       -1.82059
C         -0.14230       -1.73813        0.16690
O          0.09691       -2.52407       -0.71074
O         -1.20077       -1.86228        1.00655
C         -2.14533       -2.89369        0.66941
H         -1.65689       -3.86851        0.63899
H         -2.59290       -2.68071       -0.30268
H         -2.89899       -2.86648        1.45383

symmetry c1
no_reorient
no_com
}

set {
basis jun-cc-pvdz
scf_type df
guess sad
freeze_core true
}

energy('fisapt0')
