$molecule
0  1
C        +0.22270000        +1.04488000        +0.58595000
C        +0.62626000        -0.41353000        +0.99871000
C        +1.33008000        +1.39974000        -0.43491000
C        +2.63070000        +1.71700000        +0.32855000
C        +3.04336000        +0.29351000        +0.80300000
C        +1.94423000        -0.59299000        +0.15262000
O        +1.62840000        +0.13663000        -1.04376000
H        +3.37234000        +2.13782000        -0.35195000
H        +2.48236000        +2.42488000        +1.14651000
H        +4.02182000        +0.00994000        +0.41161000
H        +3.07359000        +0.18738000        +1.88928000
H        +1.03270000        +2.19943000        -1.08064000
H        +2.24339000        -1.61496000        +0.04786000
H        +0.81693000        -0.48905000        +2.04887000
H        -0.12524000        -1.15356000        +0.81843000
H        -0.74673000        +1.06811000        +0.13365000
H        +0.15552000        +1.72617000        +1.40828000
@C        +3.87984000        +3.17392000        +3.94043000
@C        +4.28340000        +1.71551000        +4.35319000
@C        +4.98722000        +3.52878000        +2.91957000
@C        +6.28784000        +3.84604000        +3.68303000
@C        +6.70050000        +2.42255000        +4.15748000
@C        +5.60137000        +1.53605000        +3.50710000
@O        +5.28554000        +2.26567000        +2.31072000
@H        +7.02948000        +4.26686000        +3.00253000
@H        +6.13950000        +4.55392000        +4.50099000
@H        +7.67896000        +2.13898000        +3.76609000
@H        +6.73073000        +2.31642000        +5.24376000
@H        +4.68984000        +4.32847000        +2.27384000
@H        +5.90053000        +0.51408000        +3.40234000
@H        +4.47407000        +1.63999000        +5.40335000
@H        +3.53190000        +0.97548000        +4.17291000
@H        +2.91041000        +3.19715000        +3.48813000
@H        +3.81266000        +3.85521000        +4.76276000
$end

$rem
JOBTYPE                   SP
METHOD                    B3LYP
DFT_D                     d3_op
BASIS                     6-311++G(d,p)
SYMMETRY                  False
THRESH                    12
SCF_CONVERGENCE           8
MAX_SUB_FILE_NUM          128
MEM_STATIC                400
MEM_TOTAL                 4000
$end
