$molecule
0  1
C        +3.06714000        +2.70080000        +3.19499000
C        +3.47070000        +1.24239000        +3.60775000
C        +4.17452000        +3.05566000        +2.17413000
C        +5.47514000        +3.37292000        +2.93759000
C        +5.88780000        +1.94943000        +3.41204000
C        +4.78867000        +1.06293000        +2.76166000
O        +4.47284000        +1.79255000        +1.56528000
H        +6.21678000        +3.79374000        +2.25709000
H        +5.32680000        +4.08080000        +3.75555000
H        +6.86626000        +1.66586000        +3.02065000
H        +5.91803000        +1.84330000        +4.49832000
H        +3.87714000        +3.85535000        +1.52840000
H        +5.08783000        +0.04096000        +2.65690000
H        +3.66137000        +1.16687000        +4.65791000
H        +2.71920000        +0.50236000        +3.42747000
H        +2.09771000        +2.72403000        +2.74269000
H        +2.99996000        +3.38209000        +4.01732000
@C        +0.22270000        +1.04488000        +0.58595000
@C        +0.62626000        -0.41353000        +0.99871000
@C        +1.33008000        +1.39974000        -0.43491000
@C        +2.63070000        +1.71700000        +0.32855000
@C        +3.04336000        +0.29351000        +0.80300000
@C        +1.94423000        -0.59299000        +0.15262000
@O        +1.62840000        +0.13663000        -1.04376000
@H        +3.37234000        +2.13782000        -0.35195000
@H        +2.48236000        +2.42488000        +1.14651000
@H        +4.02182000        +0.00994000        +0.41161000
@H        +3.07359000        +0.18738000        +1.88928000
@H        +1.03270000        +2.19943000        -1.08064000
@H        +2.24339000        -1.61496000        +0.04786000
@H        +0.81693000        -0.48905000        +2.04887000
@H        -0.12524000        -1.15356000        +0.81843000
@H        -0.74673000        +1.06811000        +0.13365000
@H        +0.15552000        +1.72617000        +1.40828000
$end

$rem
JOBTYPE                   SP
METHOD                    B3LYP
DFT_D                     d3_op
BASIS                     6-311++G(d,p)
SYMMETRY                  False
THRESH                    12
SCF_CONVERGENCE           8
MAX_SUB_FILE_NUM          128
MEM_STATIC                400
MEM_TOTAL                 4000
$end
