$molecule
0  1
C        +0.22085000        +2.24588000        +4.60626000
C        +0.66532000        +0.81517000        +5.03097000
C        +1.34480000        +2.62185000        +3.61632000
C        +2.64451000        +2.93198000        +4.38979000
C        +3.08315000        +1.50092000        +4.81836000
C        +1.96183000        +0.62536000        +4.20065000
O        +1.64588000        +1.36144000        +2.99237000
H        +3.38299000        +3.39115000        +3.73009000
H        +2.47851000        +3.60711000        +5.23230000
H        +4.04830000        +1.23441000        +4.38301000
H        +3.15451000        +1.37602000        +5.90117000
H        +1.07107000        +3.34864000        +2.85311000
C        +2.33960000        -0.80024000        +3.87151000
H        +3.21493000        -0.82464000        +3.21776000
H        +1.51553000        -1.31071000        +3.36727000
H        +2.57786000        -1.34992000        +4.78653000
H        -0.74493000        +2.22493000        +4.09830000
H        +0.15013000        +2.94525000        +5.44203000
H        +0.84479000        +0.71900000        +6.10407000
H        -0.07590000        +0.06594000        +4.74429000
@C        +0.20553000        +1.04146000        +0.58269000
@C        +0.65000000        -0.38925000        +1.00740000
@C        +1.32948000        +1.41743000        -0.40725000
@C        +2.62919000        +1.72756000        +0.36622000
@C        +3.06783000        +0.29650000        +0.79479000
@C        +1.94651000        -0.57906000        +0.17708000
@O        +1.63056000        +0.15702000        -1.03120000
@H        +3.36767000        +2.18673000        -0.29348000
@H        +2.46319000        +2.40269000        +1.20873000
@H        +4.03298000        +0.02999000        +0.35944000
@H        +3.13919000        +0.17160000        +1.87760000
@H        +1.05575000        +2.14422000        -1.17046000
@C        +2.32428000        -2.00466000        -0.15206000
@H        +3.19961000        -2.02906000        -0.80581000
@H        +1.50021000        -2.51513000        -0.65630000
@H        +2.56254000        -2.55434000        +0.76296000
@H        -0.76025000        +1.02051000        +0.07473000
@H        +0.13481000        +1.74083000        +1.41846000
@H        +0.82947000        -0.48542000        +2.08050000
@H        -0.09122000        -1.13848000        +0.72072000
$end

$rem
JOBTYPE                   SP
METHOD                    B3LYP
DFT_D                     d3_op
BASIS                     6-311++G(d,p)
SYMMETRY                  False
THRESH                    12
SCF_CONVERGENCE           8
MAX_SUB_FILE_NUM          128
MEM_STATIC                400
MEM_TOTAL                 4000
$end
