$molecule
0  1
C        -0.54444000        -0.68370000        -0.06689000
C        -0.55709000        +0.71878000        +0.05493000
C        -1.74320000        -1.41616000        -0.12552000
C        -2.93952000        -0.70056000        -0.05285000
C        -2.95313000        +0.68255000        +0.06934000
C        -1.77161000        +1.42404000        +0.12810000
H        -3.90354000        +1.20325000        +0.11710000
H        -3.87892000        -1.24211000        -0.08988000
C        -1.83960000        +2.92746000        +0.24839000
H        -1.24214000        +3.42352000        -0.52065000
H        -1.45503000        +3.26427000        +1.21284000
H        -2.87211000        +3.26623000        +0.14638000
H        -1.73878000        -2.44393000        -0.21875000
H        +0.35825000        -1.18166000        -0.11386000
H        +0.33551000        +1.23549000        +0.09097000
@C        -0.68799000        -0.98399000        +4.11990000
@C        -0.70064000        +0.41849000        +4.24172000
@C        -1.88675000        -1.71645000        +4.06127000
@C        -3.08307000        -1.00085000        +4.13394000
@C        -3.09668000        +0.38226000        +4.25613000
@C        -1.91516000        +1.12375000        +4.31489000
@H        -4.04709000        +0.90296000        +4.30389000
@H        -4.02247000        -1.54240000        +4.09691000
@C        -1.98315000        +2.62717000        +4.43518000
@H        -1.38569000        +3.12323000        +3.66614000
@H        -1.59858000        +2.96398000        +5.39963000
@H        -3.01566000        +2.96594000        +4.33317000
@H        -1.88233000        -2.74422000        +3.96804000
@H        +0.21470000        -1.48195000        +4.07293000
@H        +0.19196000        +0.93520000        +4.27776000
$end

$rem
JOBTYPE                   SP
METHOD                    B3LYP
DFT_D                     d3_op
BASIS                     6-311++G(d,p)
SYMMETRY                  False
THRESH                    12
SCF_CONVERGENCE           8
MAX_SUB_FILE_NUM          128
MEM_STATIC                400
MEM_TOTAL                 4000
$end
