$molecule
0  1
C        -0.55335000        -0.66344000        -0.04955000
C        -0.58369000        +0.72363000        +0.07143000
C        -1.74416000        -1.38805000        -0.12104000
C        -2.96100000        -0.71253000        -0.06974000
C        -2.98560000        +0.67733000        +0.05133000
C        -1.80096000        +1.41593000        +0.12202000
H        -3.93869000        +1.19496000        +0.09042000
H        -3.89285000        -1.26490000        -0.12448000
C        -1.82561000        +2.92062000        +0.24749000
H        -1.30124000        +3.39464000        -0.58804000
H        -1.33421000        +3.24931000        +1.16844000
H        -2.84892000        +3.30103000        +0.25949000
H        -1.72216000        -2.46788000        -0.21620000
H        +0.39889000        -1.18111000        -0.08841000
H        +0.34820000        +1.27792000        +0.12648000
@C        -0.58116000        -1.02869000        +4.13445000
@C        -0.61150000        +0.35838000        +4.25543000
@C        -1.77197000        -1.75330000        +4.06296000
@C        -2.98881000        -1.07778000        +4.11426000
@C        -3.01341000        +0.31208000        +4.23533000
@C        -1.82877000        +1.05068000        +4.30602000
@H        -3.96650000        +0.82971000        +4.27442000
@H        -3.92066000        -1.63015000        +4.05952000
@C        -1.85342000        +2.55537000        +4.43149000
@H        -1.32905000        +3.02939000        +3.59596000
@H        -1.36202000        +2.88406000        +5.35244000
@H        -2.87673000        +2.93578000        +4.44349000
@H        -1.74997000        -2.83313000        +3.96780000
@H        +0.37108000        -1.54636000        +4.09559000
@H        +0.32039000        +0.91267000        +4.31048000
$end

$rem
JOBTYPE                   SP
METHOD                    B3LYP
DFT_D                     d3_op
BASIS                     6-311++G(d,p)
SYMMETRY                  False
THRESH                    12
SCF_CONVERGENCE           8
MAX_SUB_FILE_NUM          128
MEM_STATIC                400
MEM_TOTAL                 4000
$end
