$molecule
0  1
C        -0.54444000        -0.68370000        -0.06689000
C        -0.55709000        +0.71878000        +0.05493000
C        -1.74320000        -1.41616000        -0.12552000
C        -2.93952000        -0.70056000        -0.05285000
C        -2.95313000        +0.68255000        +0.06934000
C        -1.77161000        +1.42404000        +0.12810000
H        -3.90354000        +1.20325000        +0.11710000
H        -3.87892000        -1.24211000        -0.08988000
C        -1.83960000        +2.92746000        +0.24839000
H        -1.24214000        +3.42352000        -0.52065000
H        -1.45503000        +3.26427000        +1.21284000
H        -2.87211000        +3.26623000        +0.14638000
H        -1.73878000        -2.44393000        -0.21875000
H        +0.35825000        -1.18166000        -0.11386000
H        +0.33551000        +1.23549000        +0.09097000
@C        -0.72900000        -1.06979000        +5.31613000
@C        -0.74165000        +0.33269000        +5.43795000
@C        -1.92776000        -1.80225000        +5.25750000
@C        -3.12408000        -1.08665000        +5.33017000
@C        -3.13769000        +0.29646000        +5.45236000
@C        -1.95617000        +1.03795000        +5.51112000
@H        -4.08810000        +0.81716000        +5.50012000
@H        -4.06348000        -1.62820000        +5.29314000
@C        -2.02416000        +2.54137000        +5.63141000
@H        -1.42670000        +3.03743000        +4.86237000
@H        -1.63959000        +2.87818000        +6.59586000
@H        -3.05667000        +2.88014000        +5.52940000
@H        -1.92334000        -2.83002000        +5.16427000
@H        +0.17369000        -1.56775000        +5.26916000
@H        +0.15095000        +0.84940000        +5.47399000
$end

$rem
JOBTYPE                   SP
METHOD                    B3LYP
DFT_D                     d3_op
BASIS                     6-311++G(d,p)
SYMMETRY                  False
THRESH                    12
SCF_CONVERGENCE           8
MAX_SUB_FILE_NUM          128
MEM_STATIC                400
MEM_TOTAL                 4000
$end
