memory 750000 mb

molecule mol {
0 1
C          2.83092       -1.20999        0.06546
H          2.32873       -2.02546       -0.45029
H          3.07192       -1.52838        1.08385
H          3.76713       -0.98931       -0.45233
--
0 1
C         -0.23870       -1.32473        0.66912
O         -1.06383       -1.67288        1.48362
O         -0.01570       -1.96815       -0.48222
C         -0.89322       -3.06650       -0.78762
H         -0.53065       -3.46799       -1.73103
H         -0.85537       -3.82241       -0.00207
H         -1.91522       -2.70197       -0.89905
--
0 1
H          0.44179        2.08853       -1.75001
C         -1.52688        0.88707       -0.32647
O         -1.77566        0.42858       -1.41439
O         -2.46609        1.17928        0.59601
C         -3.81823        0.81062        0.26554
H         -3.88704       -0.26859        0.12098
H         -4.41813        1.11796        1.11894
H         -4.14502        1.32161       -0.64121
C         -0.14738        1.19612        0.21599
C          0.59110       -0.05936        0.83862
C          0.88181        1.64030       -0.86246
C          1.98255        2.44595       -0.14937
C          2.69484        1.30593        0.63335
C          1.96475        0.03089        0.10169
O          1.56276        0.43605       -1.21940
H         -0.26820        1.95729        0.98576
H          0.69749        0.07206        1.91497
H          2.65001        2.89970       -0.88332
H          1.58669        3.23698        0.49087
H          3.75592        1.25190        0.38618
H          2.61135        1.40753        1.71769

symmetry c1
no_reorient
no_com
}

set {
basis jun-cc-pvdz
scf_type df
guess sad
freeze_core true
}

energy('fisapt0')
