memory 750000 mb

molecule mol {
0 1
C          2.07890       -2.04347       -0.59568
H          2.97257       -2.04901       -1.22349
H          2.27288       -2.67484        0.27662
H          1.25043       -2.46792       -1.15705
--
0 1
C         -0.61879       -1.32178        0.74401
O         -1.27838       -1.61519        1.71389
O         -0.85218       -1.80874       -0.48403
C         -2.01505       -2.64025       -0.62077
H         -2.05670       -2.90894       -1.67414
H         -1.92824       -3.53246        0.00153
H         -2.90903       -2.08773       -0.32806
--
0 1
H          1.01437        2.24375       -1.24604
C         -1.08636        1.66624        0.18028
O         -1.32111        2.85293        0.17967
O         -1.98268        0.73904       -0.17952
C         -3.28527        1.22298       -0.55973
H         -3.86242        0.33476       -0.80595
H         -3.74492        1.76353        0.26840
H         -3.20658        1.88258       -1.42464
C          0.28331        1.13713        0.56550
C          0.57831       -0.38549        0.82863
C          1.31905        1.44893       -0.56941
C          2.71067        1.60112        0.06703
C          3.01138        0.12270        0.43609
C          1.77773       -0.62712       -0.15430
O          1.41867        0.21113       -1.27364
H          0.53945        1.71673        1.45263
H          0.91159       -0.49579        1.86079
H          3.42040        1.97884       -0.67070
H          2.71193        2.27929        0.92206
H          3.92244       -0.23138       -0.04806
H          3.11784       -0.04256        1.51001

symmetry c1
no_reorient
no_com
}

set {
basis jun-cc-pvdz
scf_type df
guess sad
freeze_core true
}

energy('fisapt0')
