$molecule
0  1
C        +0.22270000        +1.04488000        +0.58595000
C        +0.62626000        -0.41353000        +0.99871000
C        +1.33008000        +1.39974000        -0.43491000
C        +2.63070000        +1.71700000        +0.32855000
C        +3.04336000        +0.29351000        +0.80300000
C        +1.94423000        -0.59299000        +0.15262000
O        +1.62840000        +0.13663000        -1.04376000
H        +3.37234000        +2.13782000        -0.35195000
H        +2.48236000        +2.42488000        +1.14651000
H        +4.02182000        +0.00994000        +0.41161000
H        +3.07359000        +0.18738000        +1.88928000
H        +1.03270000        +2.19943000        -1.08064000
H        +2.24339000        -1.61496000        +0.04786000
H        +0.81693000        -0.48905000        +2.04887000
H        -0.12524000        -1.15356000        +0.81843000
H        -0.74673000        +1.06811000        +0.13365000
H        +0.15552000        +1.72617000        +1.40828000
@C        +4.21846000        +3.37105000        +4.25103000
@C        +4.62202000        +1.91264000        +4.66379000
@C        +5.32584000        +3.72591000        +3.23017000
@C        +6.62646000        +4.04317000        +3.99363000
@C        +7.03912000        +2.61968000        +4.46808000
@C        +5.93999000        +1.73318000        +3.81770000
@O        +5.62416000        +2.46280000        +2.62132000
@H        +7.36810000        +4.46399000        +3.31313000
@H        +6.47812000        +4.75105000        +4.81159000
@H        +8.01758000        +2.33611000        +4.07669000
@H        +7.06935000        +2.51355000        +5.55436000
@H        +5.02846000        +4.52560000        +2.58444000
@H        +6.23915000        +0.71121000        +3.71294000
@H        +4.81269000        +1.83712000        +5.71395000
@H        +3.87052000        +1.17261000        +4.48351000
@H        +3.24903000        +3.39428000        +3.79873000
@H        +4.15128000        +4.05234000        +5.07336000
$end

$rem
JOBTYPE                   SP
METHOD                    B3LYP
DFT_D                     d3_op
BASIS                     6-311++G(d,p)
SYMMETRY                  False
THRESH                    12
SCF_CONVERGENCE           8
MAX_SUB_FILE_NUM          128
MEM_STATIC                400
MEM_TOTAL                 4000
$end
