$molecule
0  1
--
0  1
C        +0.22270000        +1.04488000        +0.58595000
C        +0.62626000        -0.41353000        +0.99871000
C        +1.33008000        +1.39974000        -0.43491000
C        +2.63070000        +1.71700000        +0.32855000
C        +3.04336000        +0.29351000        +0.80300000
C        +1.94423000        -0.59299000        +0.15262000
O        +1.62840000        +0.13663000        -1.04376000
H        +3.37234000        +2.13782000        -0.35195000
H        +2.48236000        +2.42488000        +1.14651000
H        +4.02182000        +0.00994000        +0.41161000
H        +3.07359000        +0.18738000        +1.88928000
H        +1.03270000        +2.19943000        -1.08064000
H        +2.24339000        -1.61496000        +0.04786000
H        +0.81693000        -0.48905000        +2.04887000
H        -0.12524000        -1.15356000        +0.81843000
H        -0.74673000        +1.06811000        +0.13365000
H        +0.15552000        +1.72617000        +1.40828000
--
0  1
C        +3.33804000        +2.85850000        +3.44347000
C        +3.74160000        +1.40009000        +3.85623000
C        +4.44542000        +3.21336000        +2.42261000
C        +5.74604000        +3.53062000        +3.18607000
C        +6.15870000        +2.10713000        +3.66052000
C        +5.05957000        +1.22063000        +3.01014000
O        +4.74374000        +1.95025000        +1.81376000
H        +6.48768000        +3.95144000        +2.50557000
H        +5.59770000        +4.23850000        +4.00403000
H        +7.13716000        +1.82356000        +3.26913000
H        +6.18893000        +2.00100000        +4.74680000
H        +4.14804000        +4.01305000        +1.77688000
H        +5.35873000        +0.19866000        +2.90538000
H        +3.93227000        +1.32457000        +4.90639000
H        +2.99010000        +0.66006000        +3.67595000
H        +2.36861000        +2.88173000        +2.99117000
H        +3.27086000        +3.53979000        +4.26580000
$end

$rem
JOBTYPE                   SP
METHOD                    B3LYP
DFT_D                     d3_op
BASIS                     6-311++G(d,p)
SYMMETRY                  False
THRESH                    12
SCF_CONVERGENCE           8
MAX_SUB_FILE_NUM          128
MEM_STATIC                400
MEM_TOTAL                 4000
$end
