$molecule
0  1
C        +3.54931000        +2.68454000        +3.30720000
C        +3.95287000        +1.22613000        +3.71996000
C        +4.65669000        +3.03940000        +2.28634000
C        +5.95731000        +3.35666000        +3.04980000
C        +6.36997000        +1.93317000        +3.52425000
C        +5.27084000        +1.04667000        +2.87387000
O        +4.95501000        +1.77629000        +1.67749000
H        +6.69895000        +3.77748000        +2.36930000
H        +5.80897000        +4.06454000        +3.86776000
H        +7.34843000        +1.64960000        +3.13286000
H        +6.40020000        +1.82704000        +4.61053000
H        +4.35931000        +3.83909000        +1.64061000
C        +5.68111000        -0.37301000        +2.55313000
H        +6.58404000        -0.36229000        +1.97910000
H        +4.90612000        -0.84966000        +1.99002000
H        +5.84348000        -0.91163000        +3.46331000
H        +2.57988000        +2.70777000        +2.85490000
H        +3.48213000        +3.36583000        +4.12953000
H        +4.14354000        +1.15061000        +4.77012000
H        +3.20137000        +0.48610000        +3.53968000
@C        +0.22270000        +1.04488000        +0.58595000
@C        +0.62626000        -0.41353000        +0.99871000
@C        +1.33008000        +1.39974000        -0.43491000
@C        +2.63070000        +1.71700000        +0.32855000
@C        +3.04336000        +0.29351000        +0.80300000
@C        +1.94423000        -0.59299000        +0.15262000
@O        +1.62840000        +0.13663000        -1.04376000
@H        +3.37234000        +2.13782000        -0.35195000
@H        +2.48236000        +2.42488000        +1.14651000
@H        +4.02182000        +0.00994000        +0.41161000
@H        +3.07359000        +0.18738000        +1.88928000
@H        +1.03270000        +2.19943000        -1.08064000
@C        +2.35450000        -2.01267000        -0.16812000
@H        +3.25743000        -2.00195000        -0.74215000
@H        +1.57951000        -2.48932000        -0.73123000
@H        +2.51687000        -2.55129000        +0.74206000
@H        -0.74673000        +1.06811000        +0.13365000
@H        +0.15552000        +1.72617000        +1.40828000
@H        +0.81693000        -0.48905000        +2.04887000
@H        -0.12524000        -1.15356000        +0.81843000
$end

$rem
JOBTYPE                   SP
METHOD                    B3LYP
DFT_D                     d3_op
BASIS                     6-311++G(d,p)
SYMMETRY                  False
THRESH                    12
SCF_CONVERGENCE           8
MAX_SUB_FILE_NUM          128
MEM_STATIC                400
MEM_TOTAL                 4000
$end
