$molecule
0  1
C        +4.48943000        +3.14792000        +4.07625000
C        +4.89299000        +1.68951000        +4.48901000
C        +5.59681000        +3.50278000        +3.05539000
C        +6.89743000        +3.82004000        +3.81885000
C        +7.31009000        +2.39655000        +4.29330000
C        +6.21096000        +1.51005000        +3.64292000
O        +5.89513000        +2.23967000        +2.44654000
H        +7.63907000        +4.24086000        +3.13835000
H        +6.74909000        +4.52792000        +4.63681000
H        +8.28855000        +2.11298000        +3.90191000
H        +7.34032000        +2.29042000        +5.37958000
H        +5.29943000        +4.30247000        +2.40966000
C        +6.62123000        +0.09037000        +3.32218000
H        +7.52416000        +0.10109000        +2.74815000
H        +5.84624000        -0.38628000        +2.75907000
H        +6.78360000        -0.44825000        +4.23236000
H        +3.52000000        +3.17115000        +3.62395000
H        +4.42225000        +3.82921000        +4.89858000
H        +5.08366000        +1.61399000        +5.53917000
H        +4.14149000        +0.94948000        +4.30873000
@C        +0.22270000        +1.04488000        +0.58595000
@C        +0.62626000        -0.41353000        +0.99871000
@C        +1.33008000        +1.39974000        -0.43491000
@C        +2.63070000        +1.71700000        +0.32855000
@C        +3.04336000        +0.29351000        +0.80300000
@C        +1.94423000        -0.59299000        +0.15262000
@O        +1.62840000        +0.13663000        -1.04376000
@H        +3.37234000        +2.13782000        -0.35195000
@H        +2.48236000        +2.42488000        +1.14651000
@H        +4.02182000        +0.00994000        +0.41161000
@H        +3.07359000        +0.18738000        +1.88928000
@H        +1.03270000        +2.19943000        -1.08064000
@C        +2.35450000        -2.01267000        -0.16812000
@H        +3.25743000        -2.00195000        -0.74215000
@H        +1.57951000        -2.48932000        -0.73123000
@H        +2.51687000        -2.55129000        +0.74206000
@H        -0.74673000        +1.06811000        +0.13365000
@H        +0.15552000        +1.72617000        +1.40828000
@H        +0.81693000        -0.48905000        +2.04887000
@H        -0.12524000        -1.15356000        +0.81843000
$end

$rem
JOBTYPE                   SP
METHOD                    B3LYP
DFT_D                     d3_op
BASIS                     6-311++G(d,p)
SYMMETRY                  False
THRESH                    12
SCF_CONVERGENCE           8
MAX_SUB_FILE_NUM          128
MEM_STATIC                400
MEM_TOTAL                 4000
$end
