$molecule
0  1
C        -0.50384000        -1.19813000        +5.81050000
C        -0.51649000        +0.20435000        +5.93232000
C        -1.70260000        -1.93059000        +5.75187000
C        -2.89892000        -1.21499000        +5.82454000
C        -2.91253000        +0.16812000        +5.94673000
C        -1.73101000        +0.90961000        +6.00549000
H        -3.86294000        +0.68882000        +5.99449000
H        -3.83832000        -1.75654000        +5.78751000
C        -1.79900000        +2.41303000        +6.12578000
H        -1.20154000        +2.90909000        +5.35674000
H        -1.41443000        +2.74984000        +7.09023000
H        -2.83151000        +2.75180000        +6.02377000
H        -1.69818000        -2.95836000        +5.65864000
H        +0.39885000        -1.69609000        +5.76353000
H        +0.37611000        +0.72106000        +5.96836000
@C        -0.54444000        -0.68370000        -0.06689000
@C        -0.55709000        +0.71878000        +0.05493000
@C        -1.74320000        -1.41616000        -0.12552000
@C        -2.93952000        -0.70056000        -0.05285000
@C        -2.95313000        +0.68255000        +0.06934000
@C        -1.77161000        +1.42404000        +0.12810000
@H        -3.90354000        +1.20325000        +0.11710000
@H        -3.87892000        -1.24211000        -0.08988000
@C        -1.83960000        +2.92746000        +0.24839000
@H        -1.24214000        +3.42352000        -0.52065000
@H        -1.45503000        +3.26427000        +1.21284000
@H        -2.87211000        +3.26623000        +0.14638000
@H        -1.73878000        -2.44393000        -0.21875000
@H        +0.35825000        -1.18166000        -0.11386000
@H        +0.33551000        +1.23549000        +0.09097000
$end

$rem
JOBTYPE                   SP
METHOD                    B3LYP
DFT_D                     d3_op
BASIS                     6-311++G(d,p)
SYMMETRY                  False
THRESH                    12
SCF_CONVERGENCE           8
MAX_SUB_FILE_NUM          128
MEM_STATIC                400
MEM_TOTAL                 4000
$end
