$molecule
0  1
C        -0.54444000        -0.68370000        -0.06689000
C        -0.55709000        +0.71878000        +0.05493000
C        -1.74320000        -1.41616000        -0.12552000
C        -2.93952000        -0.70056000        -0.05285000
C        -2.95313000        +0.68255000        +0.06934000
C        -1.77161000        +1.42404000        +0.12810000
H        -3.90354000        +1.20325000        +0.11710000
H        -3.87892000        -1.24211000        -0.08988000
C        -1.83960000        +2.92746000        +0.24839000
H        -1.24214000        +3.42352000        -0.52065000
H        -1.45503000        +3.26427000        +1.21284000
H        -2.87211000        +3.26623000        +0.14638000
H        -1.73878000        -2.44393000        -0.21875000
H        +0.35825000        -1.18166000        -0.11386000
H        +0.33551000        +1.23549000        +0.09097000
@C        -0.51278000        -1.08478000        +4.51548000
@C        -0.52543000        +0.31770000        +4.63730000
@C        -1.71154000        -1.81724000        +4.45685000
@C        -2.90786000        -1.10164000        +4.52952000
@C        -2.92147000        +0.28147000        +4.65171000
@C        -1.73995000        +1.02296000        +4.71047000
@H        -3.87188000        +0.80217000        +4.69947000
@H        -3.84726000        -1.64319000        +4.49249000
@C        -1.80794000        +2.52638000        +4.83076000
@H        -1.21048000        +3.02244000        +4.06172000
@H        -1.42337000        +2.86319000        +5.79521000
@H        -2.84045000        +2.86515000        +4.72875000
@H        -1.70712000        -2.84501000        +4.36362000
@H        +0.38991000        -1.58274000        +4.46851000
@H        +0.36717000        +0.83441000        +4.67334000
$end

$rem
JOBTYPE                   SP
METHOD                    B3LYP
DFT_D                     d3_op
BASIS                     6-311++G(d,p)
SYMMETRY                  False
THRESH                    12
SCF_CONVERGENCE           8
MAX_SUB_FILE_NUM          128
MEM_STATIC                400
MEM_TOTAL                 4000
$end
