memory 750000 mb

molecule mol {
0 1
C         -2.10986       -1.59132        0.82339
H         -2.10734       -0.89326        1.66742
H         -2.15896       -2.61716        1.21491
O         -3.20183       -1.32937       -0.04493
C         -4.45257       -1.36519        0.61642
H         -4.49450       -0.62548        1.42754
H         -4.65566       -2.36024        1.03613
H         -5.21530       -1.12957       -0.12618
--
0 1
C         -1.43790        1.09744       -0.12015
O         -1.44590        1.41533        1.04580
O         -2.16787        1.72211       -1.06462
C         -3.00560        2.79414       -0.60271
H         -2.41098        3.55899       -0.10104
H         -3.47838        3.19884       -1.49493
H         -3.75896        2.41415        0.09004
--
0 1
C         -0.64357       -0.04151       -0.72023
C          0.92253        0.11825       -0.63840
C         -0.83790       -1.41996        0.02070
C         -0.51478       -2.51806       -1.01467
C          1.02070       -2.33556       -1.16098
C          1.32368       -1.26924       -0.06727
O          0.28870       -1.49734        0.90273
H         -0.95491       -0.13339       -1.75769
H          1.33004        0.26687       -1.63845
H         -0.75792       -3.49501       -0.59189
H         -1.07189       -2.40026       -1.94405
H          1.55843       -3.25865       -0.94076
H          1.32924       -2.00237       -2.15257
C          2.68576       -1.39920        0.58424
H          2.73424       -0.77276        1.47684
H          2.84944       -2.44858        0.86967
O          3.64685       -0.98682       -0.37755
C          4.95683       -0.91672        0.15375
H          5.00682       -0.20659        0.98969
H          5.30102       -1.90063        0.50287
H          5.61214       -0.57568       -0.64834
C          1.35617        1.32736        0.17757
O          1.92477        1.34440        1.23712
O          1.00550        2.45137       -0.49265
C          1.21870        3.69075        0.20656
H          0.63630        3.70044        1.12928
H          2.27563        3.82225        0.44216
H          0.87845        4.46890       -0.47350

symmetry c1
no_reorient
no_com
}

set {
basis jun-cc-pvdz
scf_type df
guess sad
freeze_core true
}

energy('fisapt0')
