memory 750000 mb

molecule mol {
0 1
C          2.76966       -1.24490        0.61223
H          2.77753       -0.62715        1.51216
H          3.00156       -2.28456        0.88598
O          3.70220       -0.75917       -0.34354
C          5.00149       -0.59828        0.19420
H          4.99556        0.10546        1.03704
H          5.63290       -0.20231       -0.60173
H          5.41595       -1.55735        0.53596
--
0 1
C          1.25300        1.39288        0.25441
O          1.80561        1.42760        1.32207
O          0.83611        2.50374       -0.39978
C          0.95067        3.73960        0.32845
H          1.99031        3.93463        0.59432
H          0.57688        4.50812       -0.34496
H          0.34548        3.69125        1.23522
--
0 1
C         -2.00489       -1.74270        0.84779
H         -2.04266       -1.05197        1.69680
H         -1.99470       -2.77276        1.23095
O         -3.10964       -1.53787       -0.02007
C         -4.35637       -1.61917        0.64477
H         -4.43002       -0.86745        1.44230
H         -4.51381       -2.61479        1.08226
H         -5.12997       -1.43158       -0.10029
C         -1.51549        0.98375       -0.08913
O         -1.56542        1.28961        1.07910
O         -2.26235        1.57343       -1.04289
C         -3.16165        2.59889       -0.59166
H         -2.61273        3.39829       -0.09149
H         -3.65024        2.97247       -1.48891
H         -3.89719        2.18234        0.09902
C         -0.63935       -0.09589       -0.68401
C          0.91144        0.17251       -0.58822
C         -0.74485       -1.48894        0.04753
C         -0.35102       -2.55656       -0.99451
C          1.16567       -2.26040       -1.14994
C          1.40170       -1.19497       -0.03798
O          0.38478       -1.50255        0.92874
H         -0.93385       -0.20326       -1.72493
H          1.31400        0.36739       -1.58205
H         -0.51947       -3.55011       -0.57398
H         -0.92165       -2.47607       -1.91977
H          1.77281       -3.14585       -0.95774
H          1.43542       -1.88319       -2.13724

symmetry c1
no_reorient
no_com
}

set {
basis jun-cc-pvdz
scf_type df
guess sad
freeze_core true
}

energy('fisapt0')
