memory 750000 mb

molecule mol {
0 1
C         -2.29220       -1.54315        0.86919
H         -2.26157       -2.51563        1.38233
H         -2.39166       -0.74965        1.61245
O         -3.36139       -1.50382       -0.06409
C         -4.63108       -1.42848        0.55639
H         -4.81928       -2.30539        1.19221
H         -5.37641       -1.40173       -0.23921
H         -4.71782       -0.51989        1.16573
--
0 1
C         -1.51685        1.20443       -0.26593
O         -2.24500        1.34414        0.68192
O         -1.22461        2.21081       -1.12543
C         -1.78480        3.49601       -0.80932
H         -1.46332        3.81710        0.18292
H         -1.40788        4.17255       -1.57308
H         -2.87489        3.45480       -0.83564
--
0 1
C         -0.82460       -0.05904       -0.75264
C          0.74621        0.04558       -0.81801
C         -1.01279       -1.36661        0.07829
C         -0.67017       -2.55395       -0.86032
C          0.87743       -2.46334       -0.93190
C          1.15096       -1.24452       -0.01787
O          0.11719       -1.34643        0.96867
H         -1.20636       -0.20733       -1.76413
H          1.10606       -0.01486       -1.84177
H         -0.99358       -3.48709       -0.39612
H         -1.16486       -2.47454       -1.82814
H          1.35276       -3.35151       -0.51179
H          1.26895       -2.31863       -1.93849
C          2.50870       -1.23137        0.65230
H          2.60989       -0.35215        1.30228
H          2.60716       -2.12676        1.28315
O          3.48367       -1.22046       -0.37276
C          4.79345       -0.97677        0.10370
H          4.86113        0.00571        0.58983
H          5.11319       -1.75068        0.81588
H          5.45615       -0.99137       -0.76138
C          1.36857        1.30764       -0.25403
O          2.24305        1.93752       -0.79611
O          0.86257        1.62963        0.95433
C          1.38712        2.81641        1.57079
H          2.45830        2.71251        1.75185
H          1.21787        3.68436        0.93108
H          0.84642        2.91719        2.50910

symmetry c1
no_reorient
no_com
}

set {
basis jun-cc-pvdz
scf_type df
guess sad
freeze_core true
}

energy('fisapt0')
